 vasp.5.4.4.18Apr17-6-g9f103f2a35 (build May 01 2020 14:22:42) gamma-only

 executed on             LinuxIFC date 2022.02.09  13:21:21

 INCAR:
 POTCAR:    PAW_PBE O 08Apr2002
 POTCAR:    PAW_PBE La 06Sep2000
 POTCAR:    PAW_PBE Zr_sv 04Jan2005
 POTCAR:    PAW_PBE Li 17Jan2003
 POTCAR:    PAW_PBE Al 04Jan2001
 POTCAR:    PAW_PBE O 08Apr2002
   VRHFIN =O: s2p4

   TITEL  = PAW_PBE O 08Apr2002
   POMASS =   16.000; ZVAL   =    6.000    mass and valenz
   ENMAX  =  400.000; ENMIN  =  300.000 eV

 POTCAR:    PAW_PBE La 06Sep2000
   VRHFIN =La : [core=Kr4d]

   TITEL  = PAW_PBE La 06Sep2000
   POMASS =  138.900; ZVAL   =   11.000    mass and valenz
   ENMAX  =  219.292; ENMIN  =  164.469 eV

 POTCAR:    PAW_PBE Zr_sv 04Jan2005
   VRHFIN =Zr: 4s4p5s4d

   TITEL  = PAW_PBE Zr_sv 04Jan2005
   POMASS =   91.224; ZVAL   =   12.000    mass and valenz
   ENMAX  =  229.898; ENMIN  =  172.424 eV

 POTCAR:    PAW_PBE Li 17Jan2003
   VRHFIN =Li: s1p0

   TITEL  = PAW_PBE Li 17Jan2003
   POMASS =    7.010; ZVAL   =    1.000    mass and valenz
   ENMAX  =  140.000; ENMIN  =  100.000 eV

 POTCAR:    PAW_PBE Al 04Jan2001
   VRHFIN =Al: s2p1

   TITEL  = PAW_PBE Al 04Jan2001
   POMASS =   26.981; ZVAL   =    3.000    mass and valenz
   ENMAX  =  240.300; ENMIN  =  180.225 eV

 Optimization of the real space projectors (new method)

 maximal supplied QI-value         = 24.76
 optimisation between [QCUT,QGAM] = [ 11.39, 22.77] = [ 36.31,145.25] Ry
 Optimized for a Real-space Cutoff    1.10 Angstroem

   l    n(q)    QCUT    max X(q) W(low)/X(q) W(high)/X(q)  e(spline)
   0      7    11.387    20.381    0.22E-03    0.48E-03    0.18E-06
   0      7    11.387    15.268    0.22E-03    0.52E-03    0.19E-06
   1      7    11.387     5.964    0.22E-03    0.73E-03    0.24E-06
   1      7    11.387     5.382    0.19E-03    0.60E-03    0.21E-06
 Optimization of the real space projectors (new method)

[...]

   l    n(q)    QCUT    max X(q) W(low)/X(q) W(high)/X(q)  e(spline)
   0      8    11.365    33.825    0.48E-04    0.18E-03    0.59E-07
   0      8    11.365     8.944    0.37E-04    0.13E-03    0.44E-07
   1      8    11.365     4.214    0.24E-03    0.13E-03    0.38E-07
 Optimization of the real space projectors (new method)

 maximal supplied QI-value         = 19.84
 optimisation between [QCUT,QGAM] = [ 11.31, 22.82] = [ 35.82,145.81] Ry
 Optimized for a Real-space Cutoff    1.16 Angstroem

   l    n(q)    QCUT    max X(q) W(low)/X(q) W(high)/X(q)  e(spline)
   0      8    11.310   176.870    0.22E-03    0.22E-03    0.34E-07
   0      8    11.310   105.762    0.21E-03    0.22E-03    0.33E-07
   1      7    11.310    55.370    0.19E-03    0.26E-03    0.72E-07
   1      7    11.310    20.208    0.18E-03    0.24E-03    0.66E-07
  PAW_PBE O 08Apr2002                   :
  PAW_PBE La 06Sep2000                  :
  PAW_PBE Zr_sv 04Jan2005               :
  PAW_PBE Li 17Jan2003                  :
  PAW_PBE Al 04Jan2001                  :

 POSCAR: LLZO_Ia3d_partial_99
  positions in direct lattice
 exchange correlation table for  LEXCH =        8
   RHO(1)=    0.500       N(1)  =     2000
   RHO(2)=  100.500       N(2)  =     4000

 ion  position               nearest neighbor table
   1  0.100  0.196  0.282- 128 2.11 151 2.14 113 2.51  97 2.59 162 2.61
   2  0.900  0.804  0.718- 166 1.87 181 1.91 127 2.11 114 2.51  98 2.59
   3  0.400  0.804  0.782- 170 1.91 126 2.11 143 2.14 160 2.25 119 2.51  99 2.59
   4  0.600  0.196  0.218- 176 1.91 125 2.11 120 2.51 100 2.59 140 2.61
   5  0.900  0.696  0.218- 149 1.87 178 1.91 130 2.11 168 2.25 115 2.51 101 2.59
   6  0.100  0.304  0.782- 182 1.91 129 2.11 138 2.14 116 2.51 102 2.59
   7  0.600  0.304  0.718- 148 1.87 180 1.91 132 2.11 117 2.51 103 2.59
   8  0.400  0.696  0.282- 184 1.91 131 2.11 118 2.51 104 2.59 161 2.61
   9  0.282  0.100  0.196- 140 1.88 169 1.91 128 2.11 165 2.25  97 2.51 105 2.59
  10  0.718  0.900  0.804- 171 1.91 127 2.11 160 2.14  98 2.51 106 2.59
  11  0.782  0.400  0.804- 132 2.11 137 2.12 103 2.51 107 2.59 158 2.61
  12  0.218  0.600  0.196- 173 1.91 131 2.11 168 2.14 104 2.51 108 2.59 139 2.61
  13  0.218  0.900  0.696- 185 1.91 126 2.11  99 2.51 109 2.59
  14  0.782  0.100  0.304- 162 1.88 187 1.91 125 2.11 100 2.51 110 2.59 159 2.61
  15  0.718  0.600  0.304- 161 1.88 130 2.11 154 2.12 142 2.25 101 2.51 111 2.59
  16  0.282  0.400  0.696- 183 1.91 129 2.11 146 2.12 102 2.51 112 2.59 164 2.61
  17  0.196  0.282  0.100- 139 1.87 179 1.91 128 2.11 157 2.12 138 2.25 105 2.51 113 2.59
  18  0.804  0.718  0.900- 158 1.87 172 1.91 127 2.11 106 2.51 114 2.59 149 2.61
  19  0.804  0.782  0.400- 159 1.87 130 2.11 111 2.51 115 2.59 166 2.61
  20  0.196  0.218  0.600- 175 1.91 129 2.11 151 2.25 112 2.51 116 2.59
  21  0.696  0.218  0.900- 177 1.91 132 2.11 107 2.51 117 2.59
  22  0.304  0.782  0.100- 186 1.91 131 2.11 165 2.14 143 2.25 108 2.51 118 2.59
  23  0.304  0.718  0.600- 164 1.87 188 1.91 126 2.11 109 2.51 119 2.59
  24  0.696  0.282  0.400- 174 1.91 125 2.11 142 2.14 110 2.51 120 2.59 148 2.61
  25  0.946  0.350  0.968- 182 1.91 134 2.11 145 2.25 113 2.51 107 2.59
  26  0.054  0.650  0.032- 168 1.87 178 1.91 134 2.11 149 2.12 167 2.25 114 2.51 108 2.59
  27  0.554  0.650  0.468- 184 1.91 133 2.11 161 2.14 119 2.51 111 2.59
  28  0.446  0.350  0.532- 180 1.91 133 2.11 148 2.12 156 2.25 120 2.51 112 2.59
  29  0.446  0.150  0.032- 176 1.91 135 2.11 140 2.14 117 2.51 105 2.59 157 2.61
  30  0.554  0.850  0.968- 160 1.87 170 1.91 135 2.11 144 2.25 118 2.51 106 2.59
  31  0.054  0.850  0.532- 181 1.91 136 2.11 166 2.12 115 2.51 109 2.59
  32  0.946  0.150  0.468- 136 2.11 162 2.14 116 2.51 110 2.59
  33  0.850  0.532  0.054- 172 1.91 134 2.11 158 2.12 149 2.14 107 2.51 101 2.59 154 2.61
  34  0.150  0.468  0.946- 138 1.87 179 1.91 134 2.11 139 2.12 108 2.51 102 2.59 146 2.61
  35  0.150  0.032  0.446- 151 1.87 175 1.91 136 2.11 153 2.25 109 2.51  97 2.59
  36  0.850  0.968  0.554- 136 2.11 159 2.12 166 2.14 150 2.25 110 2.51  98 2.59
  37  0.650  0.468  0.554- 174 1.91 133 2.11 148 2.14 111 2.51 103 2.59 137 2.61
  38  0.350  0.532  0.446- 188 1.91 133 2.11 164 2.12 141 2.25 112 2.51 104 2.59
  39  0.350  0.968  0.946- 143 1.87 186 1.91 135 2.11 105 2.51  99 2.59
  40  0.650  0.032  0.054- 177 1.91 135 2.11 106 2.51 100 2.59
  41  0.032  0.446  0.150- 173 1.91 134 2.11 139 2.14 101 2.51 113 2.59
  42  0.968  0.554  0.850- 134 2.11 158 2.14 102 2.51 114 2.59
  43  0.532  0.054  0.850- 171 1.91 135 2.11  99 2.51 117 2.59
  44  0.468  0.946  0.150- 165 1.88 169 1.91 135 2.11 140 2.12 152 2.25 100 2.51 118 2.59
  45  0.968  0.946  0.350- 187 1.91 136 2.11 162 2.12 159 2.14 155 2.25  97 2.51 115 2.59
  46  0.032  0.054  0.650- 185 1.91 136 2.11 163 2.25  98 2.51 116 2.59
  47  0.468  0.554  0.650- 183 1.91 133 2.11 164 2.14 147 2.25 103 2.51 119 2.59
  48  0.532  0.446  0.350- 142 1.88 133 2.11 161 2.12 104 2.51 120 2.59
  49  0.600  0.696  0.782- 144 1.87 170 1.91 127 2.11 160 2.12 119 2.51 103 2.59 147 2.61
  50  0.400  0.304  0.218- 176 1.91 128 2.11 157 2.14 120 2.51 104 2.59
  51  0.900  0.304  0.282- 125 2.11 113 2.51 101 2.59
  52  0.100  0.696  0.718- 181 1.91 126 2.11 114 2.51 102 2.59
  53  0.400  0.196  0.718- 156 1.87 180 1.91 129 2.11 117 2.51  99 2.59
  54  0.600  0.804  0.282- 184 1.91 130 2.11 118 2.51 100 2.59 152 2.61
  55  0.100  0.804  0.218- 167 1.87 178 1.91 131 2.11 168 2.12 115 2.51  97 2.59 155 2.61
  56  0.900  0.196  0.782- 145 1.87 182 1.91 132 2.11 116 2.51  98 2.59 163 2.61
  57  0.782  0.600  0.696- 127 2.11 137 2.25 103 2.51 111 2.59
  58  0.218  0.400  0.304- 173 1.91 128 2.11 104 2.51 112 2.59 141 2.61
  59  0.282  0.900  0.304- 152 1.88 169 1.91 131 2.11 165 2.12  97 2.51 109 2.59 153 2.61
  60  0.718  0.100  0.696- 171 1.91 132 2.11  98 2.51 110 2.59 150 2.61
[...]
  83  0.650  0.532  0.946- 172 1.91 124 2.11 144 2.14 158 2.25 107 2.51 103 2.59
  84  0.350  0.468  0.054- 157 1.87 179 1.91 124 2.11 139 2.25 108 2.51 104 2.59
  85  0.150  0.968  0.054- 186 1.91 121 2.11 167 2.14 105 2.51  97 2.59 165 2.61
  86  0.850  0.032  0.946- 177 1.91 121 2.11 145 2.14 106 2.51  98 2.59
  87  0.850  0.468  0.446- 174 1.91 123 2.11 111 2.51 101 2.59 142 2.61
  88  0.150  0.532  0.554- 188 1.91 123 2.11 141 2.12 164 2.25 112 2.51 102 2.59
  89  0.532  0.946  0.650- 171 1.91 122 2.11 150 2.14  99 2.51 119 2.59 160 2.61
  90  0.468  0.054  0.350- 169 1.91 122 2.11 152 2.12 153 2.14 140 2.25 100 2.51 120 2.59
  91  0.032  0.554  0.350- 173 1.91 123 2.11 141 2.14 101 2.51 115 2.59 168 2.61
  92  0.968  0.446  0.650- 137 1.88 123 2.11 102 2.51 116 2.59
  93  0.468  0.446  0.850- 146 1.88 183 1.91 124 2.11 147 2.12 103 2.51 117 2.59
  94  0.532  0.554  0.150- 154 1.88 124 2.11 161 2.25 104 2.51 118 2.59
  95  0.968  0.054  0.150- 187 1.91 121 2.11 155 2.12 162 2.25  97 2.51 113 2.59
  96  0.032  0.946  0.850- 185 1.91 121 2.11 163 2.12  98 2.51 114 2.59
  97  0.125  0.000  0.250-  45 2.51  95 2.51   9 2.51  59 2.51   1 2.59  85 2.59  35 2.59  55 2.59
                           165 2.99 155 2.99 162 2.99 169 3.24 187 3.24 153 3.26 151 3.35 167 3.35
  98  0.875  0.000  0.750-  60 2.51  10 2.51  96 2.51  46 2.51  56 2.59   2 2.59  86 2.59  36 2.59
                           163 2.99 171 3.24 185 3.24 150 3.26 145 3.35 166 3.35 132 3.62 136 3.62
  99  0.375  0.000  0.750-  63 2.51  13 2.51  89 2.51  43 2.51  53 2.59   3 2.59  81 2.59  39 2.59
                           171 3.24 185 3.24 160 3.26 156 3.35 143 3.35 126 3.62 129 3.62 135 3.62
 100  0.625  0.000  0.250-  44 2.51  90 2.51  14 2.51  64 2.51  40 2.59  82 2.59   4 2.59  54 2.59
                           152 2.99 140 2.99 169 3.24 187 3.24 159 3.26 125 3.62 130 3.62 135 3.62
 101  0.875  0.500  0.250-  91 2.51  61 2.51  41 2.51  15 2.51  33 2.59  87 2.59  51 2.59   5 2.59
                           154 2.99 142 2.99 173 3.24 168 3.26 149 3.35 125 3.62 130 3.62 134 3.62
 102  0.125  0.500  0.750-  16 2.51  42 2.51  62 2.51  92 2.51   6 2.59  52 2.59  88 2.59  34 2.59
                           146 2.99 183 3.24 164 3.26 138 3.35 123 3.62 126 3.62 129 3.62 134 3.62
 103  0.625  0.500  0.750-  11 2.51  47 2.51  57 2.51  93 2.51   7 2.59  37 2.59  83 2.59  49 2.59
                           147 2.99 137 2.99 183 3.24 158 3.26 148 3.35 144 3.35 132 3.62 133 3.62
 104  0.375  0.500  0.250-  94 2.51  58 2.51  48 2.51  12 2.51  38 2.59  84 2.59  50 2.59   8 2.59
                           161 2.99 173 3.24 139 3.26 141 3.26 157 3.35 128 3.62 131 3.62 133 3.62
 105  0.250  0.125  0.000-  17 2.51  67 2.51  39 2.51  85 2.51   9 2.59  63 2.59  75 2.59  29 2.59
                           138 2.99 157 2.99 179 3.24 186 3.24 165 3.26 140 3.35 163 3.35 129 3.62
 106  0.750  0.875  0.000-  68 2.51  18 2.51  86 2.51  40 2.51  64 2.59  10 2.59  76 2.59  30 2.59
                           172 3.24 177 3.24 144 3.26 149 3.26 155 3.35 160 3.35 127 3.62 130 3.62
 107  0.750  0.375  0.000-  71 2.51  21 2.51  83 2.51  33 2.51  61 2.59  11 2.59  79 2.59  25 2.59
                           158 2.99 172 3.24 177 3.24 154 3.26 145 3.26 132 3.62 125 3.62 134 3.62
 108  0.250  0.625  0.000-  22 2.51  72 2.51  34 2.51  84 2.51  12 2.59  62 2.59  80 2.59  26 2.59
[...]
   -.135E+03 -.157E+02 0.102E+03   0.143E+03 0.177E+02 -.105E+03   -.733E+01 -.199E+01 0.216E+01   0.315E-03 0.203E-04 0.100E-03
   -.121E+03 -.199E+02 -.683E+02   0.125E+03 0.227E+02 0.675E+02   -.405E+01 -.277E+01 0.778E+00   -.161E-03 -.119E-03 0.247E-03
   0.101E+03 0.501E+01 0.954E+02   -.105E+03 -.813E+01 -.969E+02   0.369E+01 0.313E+01 0.156E+01   0.185E-03 -.677E-04 -.482E-03
   -.107E+03 0.170E+02 0.896E+02   0.111E+03 -.212E+02 -.886E+02   -.378E+01 0.425E+01 -.102E+01   -.149E-03 0.182E-03 -.177E-06
   0.132E+03 -.112E+02 -.851E+02   -.136E+03 0.135E+02 0.847E+02   0.411E+01 -.233E+01 0.429E+00   0.425E-03 0.169E-03 -.555E-03
   0.110E+03 0.155E+02 0.906E+02   -.114E+03 -.133E+02 -.904E+02   0.400E+01 -.221E+01 -.218E+00   0.349E-03 -.191E-03 0.245E-03
   -.137E+03 0.190E+02 -.117E+03   0.142E+03 -.230E+02 0.121E+03   -.559E+01 0.402E+01 -.472E+01   0.269E-05 -.689E-03 -.572E-03
   -.855E+02 0.114E+03 0.867E+01   0.850E+02 -.118E+03 -.116E+02   0.485E+00 0.449E+01 0.293E+01   -.194E-03 -.496E-03 0.264E-03
   0.964E+02 -.133E+03 0.475E+01   -.976E+02 0.139E+03 -.436E+01   0.121E+01 -.597E+01 -.395E+00   0.210E-03 0.280E-03 -.336E-03
   -.120E+03 -.110E+03 -.343E+00   0.123E+03 0.114E+03 0.312E+01   -.367E+01 -.391E+01 -.275E+01   -.814E-03 0.435E-04 0.931E-04
   0.870E+02 0.115E+03 0.115E+02   -.874E+02 -.120E+03 -.155E+02   0.378E+00 0.526E+01 0.398E+01   -.428E-03 -.198E-03 0.452E-03
   0.108E+03 -.131E+03 0.740E+01   -.111E+03 0.136E+03 -.978E+01   0.285E+01 -.523E+01 0.240E+01   0.147E-03 0.120E-03 -.114E-03
   -.545E+02 0.723E+02 -.314E+02   0.477E+02 -.664E+02 0.397E+02   0.667E+01 -.586E+01 -.824E+01   -.292E-03 0.280E-03 -.290E-03
   0.979E+02 0.128E+03 -.154E+02   -.980E+02 -.134E+03 0.189E+02   0.670E-01 0.620E+01 -.349E+01   0.112E-03 -.149E-04 0.352E-03
   -.764E+02 -.100E+03 0.507E+01   0.757E+02 0.104E+03 -.818E+01   0.644E+00 -.392E+01 0.306E+01   -.735E-03 -.224E-03 -.246E-04
   0.165E+02 -.792E+02 0.108E+03   -.191E+02 0.798E+02 -.112E+03   0.261E+01 -.535E+00 0.390E+01   -.658E-04 0.198E-03 -.195E-03
   -.134E+02 0.818E+02 -.117E+03   0.161E+02 -.829E+02 0.122E+03   -.270E+01 0.116E+01 -.470E+01   0.490E-03 0.123E-03 0.384E-04
   0.117E+02 -.100E+03 -.133E+03   -.105E+02 0.102E+03 0.139E+03   -.121E+01 -.147E+01 -.631E+01   0.935E-04 0.506E-03 0.193E-03
   0.163E+02 0.112E+03 0.112E+03   -.192E+02 -.113E+03 -.116E+03   0.290E+01 0.125E+01 0.466E+01   -.380E-03 0.174E-03 0.597E-03
   0.190E+02 0.129E+03 -.123E+03   -.218E+02 -.134E+03 0.128E+03   0.284E+01 0.485E+01 -.553E+01   -.976E-04 -.988E-04 -.727E-04
   -.137E+02 -.933E+02 0.129E+03   0.163E+02 0.941E+02 -.136E+03   -.259E+01 -.909E+00 0.717E+01   -.587E-03 0.434E-03 -.726E-03
   -.280E+02 0.431E+02 0.781E+02   0.355E+02 -.367E+02 -.725E+02   -.755E+01 -.641E+01 -.558E+01   0.185E-03 0.627E-03 0.453E-03
   -.134E+02 -.881E+02 -.113E+03   0.127E+02 0.887E+02 0.117E+03   0.820E+00 -.580E+00 -.419E+01   0.102E-03 -.120E-03 -.696E-05
   0.242E+02 0.119E+03 0.114E+03   -.277E+02 -.124E+03 -.116E+03   0.359E+01 0.496E+01 0.137E+01   -.702E-03 -.221E-03 -.505E-03
   0.403E+01 -.130E+03 -.798E+02   -.171E+01 0.134E+03 0.788E+02   -.226E+01 -.458E+01 0.106E+01   -.704E-03 0.570E-03 -.345E-03
   -.178E+02 -.139E+03 0.105E+03   0.206E+02 0.144E+03 -.106E+03   -.272E+01 -.559E+01 0.117E+01   0.131E-03 0.374E-03 -.573E-04
   0.858E+01 0.131E+03 -.819E+02   -.109E+02 -.137E+03 0.834E+02   0.236E+01 0.556E+01 -.154E+01   0.360E-03 -.886E-03 -.115E-02
   -.131E+02 -.113E+03 -.812E+02   0.122E+02 0.118E+03 0.815E+02   0.936E+00 -.484E+01 -.316E+00   0.436E-03 -.438E-03 -.380E-03
   -.139E+02 0.101E+03 0.907E+02   0.157E+02 -.105E+03 -.909E+02   -.181E+01 0.383E+01 0.258E+00   -.123E-03 0.276E-03 -.277E-05
   -.137E+02 0.115E+03 -.108E+03   0.165E+02 -.121E+03 0.112E+03   -.275E+01 0.551E+01 -.399E+01   -.820E-03 0.175E-03 0.535E-03
   0.157E+02 -.129E+03 0.103E+03   -.185E+02 0.134E+03 -.105E+03   0.279E+01 -.450E+01 0.220E+01   0.179E-03 0.934E-04 0.201E-03
   0.132E+03 -.851E+02 -.133E+01   -.136E+03 0.847E+02 0.378E+01   0.459E+01 0.453E+00 -.245E+01   -.217E-03 -.198E-03 -.801E-03
   -.108E+03 0.966E+02 0.291E+02   0.112E+03 -.966E+02 -.322E+02   -.390E+01 0.590E-01 0.296E+01   -.213E-04 -.265E-03 0.655E-04
   -.103E+03 -.929E+02 -.364E+01   0.107E+03 0.943E+02 0.152E+00   -.359E+01 -.140E+01 0.351E+01   0.197E-03 -.138E-03 0.830E-06
   0.129E+03 0.918E+02 -.868E+01   -.134E+03 -.919E+02 0.112E+02   0.564E+01 0.119E+00 -.252E+01   -.180E-04 -.447E-04 0.415E-03
   -.145E+03 0.101E+03 0.119E+01   0.152E+03 -.102E+03 0.180E+00   -.771E+01 0.761E+00 -.137E+01   0.961E-04 -.492E-03 0.164E-03
   0.564E+02 -.618E+02 0.346E+02   -.504E+02 0.567E+02 -.422E+02   -.599E+01 0.502E+01 0.762E+01   -.411E-04 0.498E-03 0.181E-03
   0.109E+03 0.824E+02 0.294E+02   -.112E+03 -.821E+02 -.324E+02   0.309E+01 -.239E+00 0.293E+01   0.115E-03 -.246E-03 0.152E-03
   -.132E+03 -.108E+03 -.745E+01   0.138E+03 0.112E+03 0.110E+02   -.577E+01 -.317E+01 -.350E+01   0.247E-03 0.190E-03 0.214E-04
   -.862E+02 0.173E+02 -.113E+03   0.865E+02 -.203E+02 0.117E+03   -.395E+00 0.280E+01 -.431E+01   -.480E-04 -.128E-03 -.600E-03
   0.117E+03 -.310E+01 0.136E+03   -.120E+03 0.514E+01 -.143E+03   0.238E+01 -.203E+01 0.704E+01   -.632E-03 0.783E-04 -.330E-03
   -.114E+03 -.156E+02 0.136E+03   0.118E+03 0.184E+02 -.141E+03   -.334E+01 -.276E+01 0.522E+01   0.153E-03 0.407E-03 0.122E-04
   0.811E+02 0.826E+01 -.108E+03   -.813E+02 -.110E+02 0.112E+03   0.227E+00 0.271E+01 -.408E+01   0.309E-03 0.308E-03 0.382E-04
   0.568E+02 0.166E+02 0.513E+02   -.515E+02 -.238E+02 -.452E+02   -.532E+01 0.721E+01 -.612E+01   -.517E-03 -.917E-04 -.589E-03
   -.108E+03 -.120E+02 -.139E+03   0.111E+03 0.160E+02 0.146E+03   -.341E+01 -.393E+01 -.664E+01   -.128E-03 -.935E-05 0.728E-03
   0.810E+02 -.217E+02 -.116E+03   -.815E+02 0.252E+02 0.121E+03   0.576E+00 -.349E+01 -.501E+01   -.208E-03 0.353E-03 -.201E-03
   -.976E+02 0.213E+02 0.126E+03   0.987E+02 -.248E+02 -.132E+03   -.111E+01 0.351E+01 0.610E+01   0.183E-03 0.633E-04 0.275E-03
   0.110E+03 -.186E+01 -.793E+02   -.114E+03 -.483E+00 0.780E+02   0.395E+01 0.234E+01 0.126E+01   0.721E-04 0.427E-03 0.144E-03
   -.138E+03 -.156E+02 0.841E+02   0.143E+03 0.190E+02 -.843E+02   -.559E+01 -.340E+01 0.189E+00   0.473E-04 -.366E-03 0.305E-03
   -.117E+03 -.204E+01 -.132E+03   0.122E+03 0.611E+01 0.136E+03   -.543E+01 -.401E+01 -.453E+01   -.583E-03 -.456E-03 0.219E-03
   0.141E+03 -.802E+01 0.120E+03   -.146E+03 0.550E+01 -.125E+03   0.547E+01 0.252E+01 0.431E+01   -.920E-04 0.356E-03 0.320E-04
   -.131E+03 0.156E+02 0.873E+02   0.136E+03 -.177E+02 -.875E+02   -.497E+01 0.222E+01 0.199E+00   -.185E-03 -.714E-03 0.246E-04
   0.108E+03 -.216E+02 -.113E+03   -.113E+03 0.244E+02 0.117E+03   0.520E+01 -.285E+01 -.401E+01   -.154E-04 0.493E-04 0.808E-04
   0.112E+03 -.106E+02 0.687E+02   -.116E+03 0.127E+02 -.673E+02   0.397E+01 -.207E+01 -.143E+01   -.767E-03 -.772E-03 -.508E-03
   -.122E+03 0.718E+01 -.817E+02   0.128E+03 -.111E+02 0.812E+02   -.563E+01 0.392E+01 0.509E+00   0.419E-04 -.455E-03 0.513E-04
   -.124E+03 0.121E+03 0.208E+02   0.129E+03 -.124E+03 -.248E+02   -.480E+01 0.370E+01 0.404E+01   -.168E-03 -.152E-03 0.256E-03
   0.828E+02 -.108E+03 -.177E+02   -.836E+02 0.113E+03 0.204E+02   0.740E+00 -.543E+01 -.278E+01   0.774E-03 0.303E-04 0.131E-02
   -.780E+02 -.114E+03 -.251E+02   0.772E+02 0.119E+03 0.278E+02   0.783E+00 -.456E+01 -.268E+01   0.231E-03 0.409E-03 -.921E-03
   0.112E+03 0.122E+03 0.180E+01   -.114E+03 -.127E+03 -.462E+01   0.252E+01 0.469E+01 0.282E+01   0.111E-03 -.155E-03 -.278E-05
[...]
   0.391E+00 0.183E+01 -.591E+01   -.380E+00 -.122E+01 0.536E+01   -.214E+00 -.775E+00 0.848E+00   -.313E-04 0.172E-04 0.198E-04
   -.185E+01 0.552E-01 0.116E+01   0.226E+01 0.106E+00 -.116E+01   -.315E+00 -.146E+00 0.220E-02   0.770E-04 -.340E-05 -.471E-04
   0.176E+01 0.335E+00 0.209E+01   -.193E+01 -.312E+00 -.185E+01   0.156E+00 -.107E-01 -.235E+00   -.388E-05 0.165E-04 -.410E-04
   0.647E+00 -.207E+01 0.289E+00   -.354E+00 0.153E+01 -.418E+00   -.182E+00 0.549E+00 0.154E+00   0.334E-05 0.450E-04 0.166E-05
   -.875E+00 0.168E+01 0.875E+00   0.811E+00 -.159E+01 -.107E+01   -.508E-02 -.949E-01 0.240E+00   -.404E-04 0.261E-04 -.457E-04
   -.246E+01 0.367E+01 0.127E+01   0.251E+01 -.379E+01 -.955E+00   0.762E-02 -.496E-02 -.329E+00   0.246E-04 -.296E-04 -.109E-04
   0.183E+01 -.397E+01 -.727E+00   -.157E+01 0.353E+01 0.891E+00   -.241E+00 0.478E+00 -.152E+00   -.272E-04 0.695E-04 0.563E-04
   0.212E+01 -.663E+01 0.195E+01   -.183E+01 0.588E+01 -.158E+01   -.561E+00 0.115E+01 -.564E+00   -.324E-05 -.455E-04 -.623E-05
   -.384E+01 0.910E+01 -.426E+01   0.278E+01 -.845E+01 0.399E+01   0.106E+01 -.854E+00 0.112E+00   -.400E-04 -.517E-04 -.169E-04
   -.248E+01 -.297E+01 0.940E+00   0.256E+01 0.255E+01 -.378E+00   -.329E-01 0.449E+00 -.532E+00   0.623E-04 0.471E-04 0.368E-04
   -.302E+00 0.346E+00 -.204E+00   0.171E+00 -.452E+00 -.641E-01   0.104E+00 0.128E+00 0.259E+00   -.410E-04 0.311E-04 0.291E-04
   0.170E+01 -.286E+01 0.108E+02   -.133E+01 0.199E+01 -.993E+01   -.655E+00 0.105E+01 -.125E+01   0.398E-04 0.397E-04 0.832E-05
   0.847E+01 -.893E+01 0.327E+01   -.796E+01 0.846E+01 -.236E+01   -.276E+00 0.383E+00 -.917E+00   -.374E-05 -.318E-03 -.184E-03
   -.145E+01 -.119E+02 -.131E+01   0.127E+01 0.109E+02 0.140E+01   0.204E+00 0.865E+00 -.319E-01   0.156E-03 -.109E-03 0.277E-03
   0.462E+01 -.935E+01 0.125E+00   0.349E-12 -.949E-12 -.893E-12   -.462E+01 0.935E+01 -.109E+00   -.568E-02 -.819E-02 -.197E-02

 POSITION                                       TOTAL-FORCE (eV/Angst)
      1.28012      2.51707      3.62708         0.002118      0.088536      0.010949
     11.66944     10.44451      9.31805         0.011210      0.017291      0.007664
      5.16070     10.49312     10.15678         0.011029      0.001938     -0.041861
      7.79066      2.38674      2.96082         0.029154      0.000011      0.016414
     11.66450      9.14462      2.73883         0.006397      0.033322      0.013483
      1.24940      3.86697     10.18197        -0.064751     -0.032558      0.004188
      7.78505      4.02742      9.33752         0.018291     -0.013510     -0.010044
      5.27443      9.14735      3.61968         0.042181      0.034505      0.040206
      3.65355      1.30691      2.52099         0.011994      0.024670      0.006538
      9.32188     11.64551     10.45999         0.021598      0.017657     -0.004149
     10.15810      5.19959     10.48822         0.095860     -0.025208      0.030924
      2.91271      7.78320      2.57095         0.004660     -0.046554     -0.023342
      2.96331     11.62600      8.89637        -0.027411      0.001701      0.020316
     10.29972      1.37983      3.97802        -0.116102      0.098772      0.057522
      9.26145      7.73805      3.85942        -0.028850      0.019299     -0.003918
      3.59484      5.27771      9.08467         0.007943     -0.070507     -0.053332
      2.56832      3.71799      1.27397        -0.000529      0.004876      0.017988
     10.41608      9.19887     11.70963        -0.031018     -0.021680     -0.030724
     10.51441     10.00733      5.17055        -0.000034     -0.020280      0.014338
      2.49779      2.95909      7.76750        -0.014274     -0.025092     -0.014794
      9.02842      2.84635     11.66835        -0.012563     -0.002908      0.000423
      3.88874     10.13817      1.26608         0.049481     -0.013484      0.012427
      3.94040      9.13636      7.79558        -0.025352      0.024115     -0.016284
      8.96996      3.75990      5.13410         0.028236      0.030498     -0.028335
     12.31418      4.52692     12.64750         0.037305     -0.000953     -0.057825
      0.80675      8.37865      0.51102         0.065342     -0.047933      0.040015
      7.25410      8.37986      6.07680         0.028533      0.011611     -0.004691
      5.77975      4.57311      7.03529         0.029639     -0.021379     -0.008308
      5.74773      1.99994      0.41723         0.022012      0.014023     -0.012869
      7.10673     10.99003     12.47343         0.010431      0.011409      0.011431
      0.71489     11.01924      6.75016         0.027003      0.001067     -0.021317
     12.31665      1.95699      6.17038        -0.008459      0.033341     -0.001442
     11.03582      6.90673      0.74562         0.005097      0.002168      0.003885
      1.97033      6.00737     12.30357        -0.022743      0.016942     -0.094504
      1.94227      0.44029      5.74900        -0.005966      0.043256      0.021293
     11.00165     12.49139      7.16957        -0.042055      0.015686      0.017890
      8.42206      6.07961      7.18607         0.027863      0.013021     -0.000948
      4.45947      6.98558      5.83958        -0.027520     -0.018878      0.032274
      4.46511     12.54615     12.38546        -0.023978      0.058241     -0.095151
      8.36273      0.21135      0.82132         0.007556      0.005404      0.009314
      0.47973      5.83286      2.00588        -0.087069     -0.139565     -0.065392
     12.66590      7.27868     11.11248        -0.010806      0.006390      0.002777
      6.78719      0.65081     11.02367         0.008956     -0.020330     -0.017549
      5.95240     12.27609      1.96471        -0.026882     -0.001732     -0.048996
     12.40144     12.33713      4.48631        -0.003300      0.040251     -0.010464
      0.38147      0.73220      8.46170         0.019487      0.001865      0.000362
      6.06564      7.20412      8.50495         0.019380      0.004289      0.009646
      6.78463      5.85832      4.59198         0.003324      0.007157     -0.001344
      7.74714      9.08239     10.16652         0.011077      0.004307     -0.011797
      5.23866      3.77129      2.77470         0.035526      0.033085     -0.006960
     11.63003      4.02960      3.48104        -0.032437      0.059456      0.020867
      1.33310      8.98831      9.43275        -0.028884      0.003802      0.037463
      5.12969      2.53523      9.28056        -0.007688      0.026871     -0.016993
      7.77610     10.48506      3.57771         0.008024      0.046681      0.001187
      1.32985     10.43772      2.85457         0.083260      0.049631     -0.017436
     11.66220      2.48310     10.18719         0.018629      0.029530     -0.001638
     10.08065      7.69845      9.08861         0.008113     -0.013350      0.009607
      2.92588      5.24107      3.86707        -0.075382      0.019046     -0.083158
      3.65443     11.68535      3.99099         0.008180     -0.042174      0.041645
      9.44379      1.33583      8.87204         0.021767      0.010293     -0.005235
[...]
     10.05662      4.86293      6.30654         0.087843     -0.012739     -0.061669
      2.79073      1.28372      7.17527        -0.202840     -0.169253      0.295436
      7.00938      3.35575      1.63362         0.091379      0.015166      0.002692
      9.45100      1.57376      0.15081        -0.019061      0.012178      0.003193
      0.17107      9.58847      1.65140         0.110393      0.004847      0.024057
      3.31948      4.89882     -0.04750        -0.069423     -0.002056      0.044970
      6.56577      3.15013      8.27166         0.064966     -0.127376     -0.011771
      0.22001      9.58881      8.08545         0.017907      0.036568      0.010998
     -0.45984      3.93866     10.93202        -0.268713      0.388121     -0.191524
      5.50678      5.29687      9.01087         0.001713     -0.201525     -0.161863
      6.60542      9.71525      5.00413         0.051146      0.025491      0.029490
      1.60217     -0.24772      9.56561        -0.026879      0.022039     -0.008871
      2.66354     11.92475     -0.86699        -0.286867      0.182609     -0.396759
     11.32016      0.15698      3.29602         0.233997     -0.088854     -0.007381
      3.28120      8.14494      6.49825         0.020364     -0.134995      0.052748
    total drift:                               -0.005775     -0.011664      0.014306

  FREE ENERGIE OF THE ION-ELECTRON SYSTEM (eV)
  free  energy   TOTEN  =     -1365.81487741 eV

  energy  without entropy=    -1365.81487741  energy(sigma->0) =    -1365.81487741

 d Force = 0.3761627E+00[ 0.336E+00, 0.416E+00]  d Energy = 0.3779781E+00-0.182E-02
 d Force = 0.2830759E+01[ 0.220E+01, 0.346E+01]  d Ewald  = 0.2840836E+01-0.101E-01

 Quasi-Newton relaxation of ions (Broydens 2nd method)
  g(Force)  = 0.116E+00   g(Stress)= 0.000E+00

 retain information from N=  2 steps
 eigenvalues of (default step * inverse Hessian matrix)
  average eigenvalue of G=   3.5257
 eigenvalue spectrum of G is  3.5257  3.5257