 vasp.5.4.4.18Apr17-6-g9f103f2a35 (build May 01 2020 14:22:42) gamma-only

 executed on             LinuxIFC date 2022.02.23  05:55:17

 INCAR:
 POTCAR:    PAW_PBE O 08Apr2002
 POTCAR:    PAW_PBE La 06Sep2000
 POTCAR:    PAW_PBE Zr_sv 04Jan2005
 POTCAR:    PAW_PBE Li 17Jan2003
 POTCAR:    PAW_PBE Al 04Jan2001
 POTCAR:    PAW_PBE O 08Apr2002
   VRHFIN =O: s2p4

   TITEL  = PAW_PBE O 08Apr2002
   POMASS =   16.000; ZVAL   =    6.000    mass and valenz
   ENMAX  =  400.000; ENMIN  =  300.000 eV

 POTCAR:    PAW_PBE La 06Sep2000
   VRHFIN =La : [core=Kr4d]

   TITEL  = PAW_PBE La 06Sep2000
   POMASS =  138.900; ZVAL   =   11.000    mass and valenz
   ENMAX  =  219.292; ENMIN  =  164.469 eV

 POTCAR:    PAW_PBE Zr_sv 04Jan2005
   VRHFIN =Zr: 4s4p5s4d

   TITEL  = PAW_PBE Zr_sv 04Jan2005
   POMASS =   91.224; ZVAL   =   12.000    mass and valenz
   ENMAX  =  229.898; ENMIN  =  172.424 eV

 POTCAR:    PAW_PBE Li 17Jan2003
   VRHFIN =Li: s1p0

   TITEL  = PAW_PBE Li 17Jan2003
   POMASS =    7.010; ZVAL   =    1.000    mass and valenz
   ENMAX  =  140.000; ENMIN  =  100.000 eV

 POTCAR:    PAW_PBE Al 04Jan2001
   VRHFIN =Al: s2p1

   TITEL  = PAW_PBE Al 04Jan2001
   POMASS =   26.981; ZVAL   =    3.000    mass and valenz
   ENMAX  =  240.300; ENMIN  =  180.225 eV

 Optimization of the real space projectors (new method)

 maximal supplied QI-value         = 24.76
 optimisation between [QCUT,QGAM] = [ 11.39, 22.77] = [ 36.31,145.25] Ry
 Optimized for a Real-space Cutoff    1.10 Angstroem

   l    n(q)    QCUT    max X(q) W(low)/X(q) W(high)/X(q)  e(spline)
   0      7    11.387    20.381    0.22E-03    0.48E-03    0.18E-06
   0      7    11.387    15.268    0.22E-03    0.52E-03    0.19E-06
   1      7    11.387     5.964    0.22E-03    0.73E-03    0.24E-06
   1      7    11.387     5.382    0.19E-03    0.60E-03    0.21E-06
 Optimization of the real space projectors (new method)

[...]

   l    n(q)    QCUT    max X(q) W(low)/X(q) W(high)/X(q)  e(spline)
   0      8    11.365    33.825    0.48E-04    0.18E-03    0.59E-07
   0      8    11.365     8.944    0.37E-04    0.13E-03    0.44E-07
   1      8    11.365     4.214    0.24E-03    0.13E-03    0.38E-07
 Optimization of the real space projectors (new method)

 maximal supplied QI-value         = 19.84
 optimisation between [QCUT,QGAM] = [ 11.31, 22.82] = [ 35.82,145.81] Ry
 Optimized for a Real-space Cutoff    1.16 Angstroem

   l    n(q)    QCUT    max X(q) W(low)/X(q) W(high)/X(q)  e(spline)
   0      8    11.310   176.870    0.22E-03    0.22E-03    0.34E-07
   0      8    11.310   105.762    0.21E-03    0.22E-03    0.33E-07
   1      7    11.310    55.370    0.19E-03    0.26E-03    0.72E-07
   1      7    11.310    20.208    0.18E-03    0.24E-03    0.66E-07
  PAW_PBE O 08Apr2002                   :
  PAW_PBE La 06Sep2000                  :
  PAW_PBE Zr_sv 04Jan2005               :
  PAW_PBE Li 17Jan2003                  :
  PAW_PBE Al 04Jan2001                  :

 POSCAR: LLZO_Ia3d_Al30_partial_99
  positions in direct lattice
 exchange correlation table for  LEXCH =        8
   RHO(1)=    0.500       N(1)  =     2000
   RHO(2)=  100.500       N(2)  =     4000

 ion  position               nearest neighbor table
   1  0.100  0.196  0.282- 128 2.11 113 2.51  97 2.59
   2  0.900  0.804  0.718- 176 1.91 127 2.11 137 2.14 158 2.25 114 2.51  98 2.59
   3  0.400  0.804  0.782- 184 1.91 126 2.11 143 2.14 164 2.25 119 2.51  99 2.59
   4  0.600  0.196  0.218- 182 1.91 125 2.11 120 2.51 100 2.59 159 2.61
   5  0.900  0.696  0.218- 130 2.11 140 2.12 168 2.14 115 2.51 101 2.59 160 2.61
   6  0.100  0.304  0.782- 165 1.87 169 1.91 129 2.11 152 2.12 139 2.25 116 2.51 102 2.59
   7  0.600  0.304  0.718- 178 1.91 132 2.11 157 2.25 117 2.51 103 2.59
   8  0.400  0.696  0.282- 153 1.87 185 1.91 131 2.11 144 2.25 118 2.51 104 2.59
   9  0.282  0.100  0.196- 159 1.88 128 2.11  97 2.51 105 2.59 150 2.61
  10  0.718  0.900  0.804- 181 1.91 127 2.11 164 2.14  98 2.51 106 2.59 162 2.61
  11  0.782  0.400  0.804- 175 1.91 132 2.11 139 2.14 103 2.51 107 2.59 151 2.61
  12  0.218  0.600  0.196- 160 1.88 186 1.91 131 2.11 104 2.51 108 2.59 142 2.61
  13  0.218  0.900  0.696- 174 1.91 126 2.11 158 2.14  99 2.51 109 2.59 167 2.61
  14  0.782  0.100  0.304- 180 1.91 125 2.11 100 2.51 110 2.59 163 2.61
  15  0.718  0.600  0.304- 177 1.91 130 2.11 144 2.14 101 2.51 111 2.59
  16  0.282  0.400  0.696- 171 1.91 129 2.11 157 2.14 149 2.25 102 2.51 112 2.59
  17  0.196  0.282  0.100- 142 1.87 128 2.11 105 2.51 113 2.59 165 2.61
  18  0.804  0.718  0.900- 151 1.87 172 1.91 127 2.11 141 2.12 168 2.25 106 2.51 114 2.59
  19  0.804  0.782  0.400- 163 1.87 173 1.91 130 2.11 137 2.25 111 2.51 115 2.59
  20  0.196  0.218  0.600- 167 1.87 170 1.91 129 2.11 112 2.51 116 2.59
  21  0.696  0.218  0.900- 162 1.87 179 1.91 132 2.11 107 2.51 117 2.59
  22  0.304  0.782  0.100- 150 1.87 131 2.11 138 2.12 143 2.25 108 2.51 118 2.59
  23  0.304  0.718  0.600- 126 2.11 149 2.14 109 2.51 119 2.59 153 2.61
  24  0.696  0.282  0.400- 183 1.91 125 2.11 148 2.12 110 2.51 120 2.59
  25  0.946  0.350  0.968- 139 1.87 169 1.91 134 2.11 165 2.12 113 2.51 107 2.59
  26  0.054  0.650  0.032- 134 2.11 160 2.14 114 2.51 108 2.59 138 2.61
  27  0.554  0.650  0.468- 144 1.87 185 1.91 133 2.11 153 2.12 119 2.51 111 2.59
  28  0.446  0.350  0.532- 157 1.87 178 1.91 133 2.11 120 2.51 112 2.59
  29  0.446  0.150  0.032- 182 1.91 135 2.11 159 2.14 156 2.25 117 2.51 105 2.59
  30  0.554  0.850  0.968- 164 1.87 184 1.91 135 2.11 118 2.51 106 2.59 141 2.61
  31  0.054  0.850  0.532- 158 1.87 176 1.91 136 2.11 115 2.51 109 2.59
  32  0.946  0.150  0.468- 136 2.11 116 2.51 110 2.59 148 2.61
  33  0.850  0.532  0.054- 168 1.87 172 1.91 134 2.11 151 2.12 154 2.25 107 2.51 101 2.59
  34  0.150  0.468  0.946- 134 2.11 142 2.12 165 2.14 155 2.25 108 2.51 102 2.59
  35  0.150  0.032  0.446- 170 1.91 136 2.11 167 2.12 109 2.51  97 2.59
  36  0.850  0.968  0.554- 137 1.87 173 1.91 136 2.11 163 2.12 110 2.51  98 2.59
  37  0.650  0.468  0.554- 183 1.91 133 2.11 111 2.51 103 2.59
  38  0.350  0.532  0.446- 133 2.11 153 2.14 147 2.25 112 2.51 104 2.59
  39  0.350  0.968  0.946- 143 1.87 135 2.11 150 2.12 166 2.25 105 2.51  99 2.59
  40  0.650  0.032  0.054- 179 1.91 135 2.11 162 2.12 106 2.51 100 2.59
  41  0.032  0.446  0.150- 186 1.91 134 2.11 160 2.12 142 2.14 161 2.25 101 2.51 113 2.59
  42  0.968  0.554  0.850- 175 1.91 134 2.11 151 2.14 102 2.51 114 2.59
  43  0.532  0.054  0.850- 181 1.91 135 2.11 162 2.14  99 2.51 117 2.59
  44  0.468  0.946  0.150- 135 2.11 159 2.12 150 2.14 100 2.51 118 2.59
  45  0.968  0.946  0.350- 180 1.91 136 2.11 163 2.14  97 2.51 115 2.59 140 2.61
  46  0.032  0.054  0.650- 174 1.91 136 2.11 167 2.14  98 2.51 116 2.59 152 2.61
  47  0.468  0.554  0.650- 149 1.88 171 1.91 133 2.11 146 2.25 103 2.51 119 2.59
  48  0.532  0.446  0.350- 177 1.91 133 2.11 145 2.25 104 2.51 120 2.59
  49  0.600  0.696  0.782- 184 1.91 127 2.11 164 2.12 141 2.14 119 2.51 103 2.59 146 2.61
  50  0.400  0.304  0.218- 156 1.87 182 1.91 128 2.11 120 2.51 104 2.59 145 2.61
  51  0.900  0.304  0.282- 125 2.11 148 2.14 113 2.51 101 2.59 161 2.61
  52  0.100  0.696  0.718- 176 1.91 126 2.11 158 2.12 114 2.51 102 2.59
  53  0.400  0.196  0.718- 178 1.91 129 2.11 157 2.12 117 2.51  99 2.59
  54  0.600  0.804  0.282- 185 1.91 130 2.11 144 2.12 118 2.51 100 2.59
  55  0.100  0.804  0.218- 131 2.11 138 2.14 140 2.25 115 2.51  97 2.59
  56  0.900  0.196  0.782- 169 1.91 132 2.11 139 2.12 152 2.25 116 2.51  98 2.59
  57  0.782  0.600  0.696- 175 1.91 127 2.11 103 2.51 111 2.59
  58  0.218  0.400  0.304- 161 1.88 186 1.91 128 2.11 104 2.51 112 2.59 147 2.61
  59  0.282  0.900  0.304- 131 2.11  97 2.51 109 2.59
  60  0.718  0.100  0.696- 181 1.91 132 2.11  98 2.51 110 2.59
[...]
  83  0.650  0.532  0.946- 141 1.87 172 1.91 124 2.11 154 2.12 151 2.25 107 2.51 103 2.59
  84  0.350  0.468  0.054- 124 2.11 155 2.12 156 2.14 142 2.25 108 2.51 104 2.59
  85  0.150  0.968  0.054- 138 1.87 121 2.11 166 2.12 150 2.25 105 2.51  97 2.59
  86  0.850  0.032  0.946- 179 1.91 121 2.11 162 2.25 106 2.51  98 2.59
  87  0.850  0.468  0.446- 148 1.87 183 1.91 123 2.11 111 2.51 101 2.59
  88  0.150  0.532  0.554- 123 2.11 147 2.12 112 2.51 102 2.59 149 2.61
  89  0.532  0.946  0.650- 181 1.91 122 2.11  99 2.51 119 2.59 164 2.61
  90  0.468  0.054  0.350- 122 2.11 159 2.25 100 2.51 120 2.59
  91  0.032  0.554  0.350- 186 1.91 123 2.11 161 2.12 147 2.14 160 2.25 101 2.51 115 2.59
  92  0.968  0.446  0.650- 175 1.91 123 2.11 102 2.51 116 2.59 139 2.61
  93  0.468  0.446  0.850- 171 1.91 124 2.11 146 2.12 155 2.14 103 2.51 117 2.59 157 2.61
  94  0.532  0.554  0.150- 177 1.91 124 2.11 145 2.12 154 2.14 104 2.51 118 2.59 144 2.61
  95  0.968  0.054  0.150- 180 1.91 121 2.11  97 2.51 113 2.59
  96  0.032  0.946  0.850- 174 1.91 121 2.11 166 2.14  98 2.51 114 2.59 158 2.61
  97  0.125  0.000  0.250-  45 2.51  95 2.51   9 2.51  59 2.51   1 2.59  85 2.59  35 2.59  55 2.59
                           180 3.24 140 3.26 150 3.26 138 3.35 121 3.62 128 3.62 131 3.62 136 3.62
  98  0.875  0.000  0.750-  60 2.51  10 2.51  96 2.51  46 2.51  56 2.59   2 2.59  86 2.59  36 2.59
                           174 3.24 181 3.24 162 3.26 158 3.26 152 3.26 137 3.35 132 3.62 136 3.62
  99  0.375  0.000  0.750-  63 2.51  13 2.51  89 2.51  43 2.51  53 2.59   3 2.59  81 2.59  39 2.59
                           174 3.24 181 3.24 164 3.26 166 3.26 167 3.26 143 3.35 129 3.62 135 3.62
 100  0.625  0.000  0.250-  44 2.51  90 2.51  14 2.51  64 2.51  40 2.59  82 2.59   4 2.59  54 2.59
                           159 2.99 180 3.24 163 3.26 135 3.62 122 3.62 125 3.62 130 3.62
 101  0.875  0.500  0.250-  91 2.51  61 2.51  41 2.51  15 2.51  33 2.59  87 2.59  51 2.59   5 2.59
                           160 2.99 161 2.99 177 3.24 186 3.24 154 3.26 148 3.35 168 3.35 134 3.62
 102  0.125  0.500  0.750-  16 2.51  42 2.51  62 2.51  92 2.51   6 2.59  52 2.59  88 2.59  34 2.59
                           149 2.99 171 3.24 175 3.24 139 3.26 155 3.26 165 3.35 129 3.62 134 3.62
 103  0.625  0.500  0.750-  11 2.51  47 2.51  57 2.51  93 2.51   7 2.59  37 2.59  83 2.59  49 2.59
                           146 2.99 171 3.24 175 3.24 151 3.26 157 3.26 141 3.35 132 3.62 133 3.62
 104  0.375  0.500  0.250-  94 2.51  58 2.51  48 2.51  12 2.51  38 2.59  84 2.59  50 2.59   8 2.59
                           145 2.99 177 3.24 186 3.24 144 3.26 142 3.26 147 3.26 156 3.35 153 3.35
 105  0.250  0.125  0.000-  17 2.51  67 2.51  39 2.51  85 2.51   9 2.59  63 2.59  75 2.59  29 2.59
                           166 2.99 150 2.99 165 3.26 156 3.26 159 3.35 152 3.35 128 3.62 129 3.62
 106  0.750  0.875  0.000-  68 2.51  18 2.51  86 2.51  40 2.51  64 2.59  10 2.59  76 2.59  30 2.59
                           162 2.99 141 2.99 168 2.99 172 3.24 179 3.24 164 3.35 140 3.35 130 3.62
 107  0.750  0.375  0.000-  71 2.51  21 2.51  83 2.51  33 2.51  61 2.59  11 2.59  79 2.59  25 2.59
                           151 2.99 154 2.99 172 3.24 179 3.24 145 3.35 139 3.35 125 3.62 132 3.62
 108  0.250  0.625  0.000-  22 2.51  72 2.51  34 2.51  84 2.51  12 2.59  62 2.59  80 2.59  26 2.59
[...]
   -.118E+03 -.949E+01 0.975E+02   0.125E+03 0.116E+02 -.991E+02   -.724E+01 -.207E+01 0.167E+01   -.194E-03 0.536E-03 -.122E-03
   -.721E+02 -.422E+02 -.490E+02   0.652E+02 0.505E+02 0.417E+02   0.691E+01 -.837E+01 0.731E+01   -.180E-03 0.273E-03 0.152E-02
   0.129E+03 0.148E+02 0.117E+03   -.134E+03 -.178E+02 -.120E+03   0.541E+01 0.302E+01 0.260E+01   -.420E-04 -.134E-02 -.838E-03
   -.112E+03 0.165E+02 0.854E+02   0.117E+03 -.194E+02 -.857E+02   -.497E+01 0.292E+01 0.296E+00   -.491E-03 0.927E-03 -.978E-03
   0.127E+03 -.486E+01 -.915E+02   -.134E+03 0.779E+01 0.924E+02   0.707E+01 -.288E+01 -.960E+00   0.968E-04 -.176E-02 0.454E-03
   0.105E+03 0.181E+02 0.106E+03   -.108E+03 -.174E+02 -.110E+03   0.384E+01 -.677E+00 0.349E+01   -.493E-03 -.500E-03 0.491E-03
   -.621E+02 0.303E+02 -.483E+02   0.577E+02 -.379E+02 0.433E+02   0.439E+01 0.759E+01 0.495E+01   -.120E-04 0.483E-03 0.497E-03
   -.114E+03 0.139E+03 -.121E+02   0.116E+03 -.146E+03 0.944E+01   -.219E+01 0.630E+01 0.265E+01   -.979E-03 0.127E-02 -.107E-02
   0.911E+02 -.124E+03 0.454E+01   -.914E+02 0.130E+03 -.329E+01   0.424E+00 -.573E+01 -.119E+01   -.101E-02 0.706E-03 -.653E-03
   -.751E+02 -.111E+03 -.121E+02   0.762E+02 0.115E+03 0.142E+02   -.107E+01 -.444E+01 -.217E+01   -.667E-03 0.237E-03 0.406E-03
   0.415E+02 0.546E+02 0.116E+02   -.356E+02 -.487E+02 -.178E+02   -.594E+01 -.588E+01 0.618E+01   0.615E-03 0.247E-03 -.244E-03
   0.846E+02 -.126E+03 0.100E+02   -.846E+02 0.131E+03 -.119E+02   0.642E-01 -.543E+01 0.190E+01   -.506E-03 0.477E-03 0.285E-03
   -.111E+03 0.121E+03 -.175E+01   0.115E+03 -.126E+03 0.563E+01   -.406E+01 0.508E+01 -.386E+01   -.386E-03 -.220E-02 -.903E-03
   0.871E+02 0.116E+03 -.140E+02   -.876E+02 -.120E+03 0.163E+02   0.524E+00 0.414E+01 -.223E+01   0.320E-03 0.186E-02 -.709E-03
   -.956E+02 -.118E+03 0.126E+02   0.944E+02 0.123E+03 -.159E+02   0.123E+01 -.487E+01 0.328E+01   0.224E-03 0.536E-04 -.290E-03
   0.238E+02 -.967E+02 0.113E+03   -.270E+02 0.974E+02 -.119E+03   0.316E+01 -.721E+00 0.533E+01   0.318E-03 -.348E-03 -.616E-03
   -.102E+02 0.853E+02 -.110E+03   0.139E+02 -.849E+02 0.114E+03   -.368E+01 -.415E+00 -.397E+01   0.781E-04 0.554E-03 0.314E-03
   0.853E+01 -.938E+02 -.126E+03   -.757E+01 0.952E+02 0.133E+03   -.986E+00 -.145E+01 -.648E+01   0.286E-05 0.126E-02 -.690E-05
   -.347E-03 0.117E+03 0.135E+03   -.129E+01 -.119E+03 -.140E+03   0.129E+01 0.176E+01 0.588E+01   0.760E-03 -.510E-03 0.891E-03
   0.472E+01 0.103E+03 -.113E+03   -.562E+01 -.105E+03 0.118E+03   0.945E+00 0.161E+01 -.464E+01   -.132E-02 -.118E-03 0.340E-04
   -.959E+01 -.792E+02 0.101E+03   0.109E+02 0.797E+02 -.105E+03   -.132E+01 -.484E+00 0.406E+01   0.271E-03 -.935E-03 -.123E-02
   0.544E+01 0.843E+02 0.122E+03   -.459E+01 -.852E+02 -.127E+03   -.874E+00 0.876E+00 0.574E+01   -.175E-03 0.220E-03 0.194E-03
   0.309E+02 -.106E+03 -.137E+03   -.342E+02 0.109E+03 0.144E+03   0.326E+01 -.226E+01 -.618E+01   -.425E-04 -.583E-02 0.179E-02
   0.231E+02 0.135E+03 0.776E+02   -.248E+02 -.141E+03 -.782E+02   0.163E+01 0.589E+01 0.643E+00   -.676E-03 0.332E-03 -.908E-03
   0.774E+01 -.119E+03 -.900E+02   -.522E+01 0.123E+03 0.907E+02   -.249E+01 -.475E+01 -.670E+00   -.694E-03 0.497E-03 -.100E-02
   -.441E+02 -.548E+02 0.494E+02   0.498E+02 0.481E+02 -.432E+02   -.568E+01 0.666E+01 -.621E+01   -.104E-02 0.209E-02 0.139E-03
   -.537E+01 0.159E+03 -.901E+02   0.340E+01 -.168E+03 0.909E+02   0.199E+01 0.909E+01 -.872E+00   -.885E-03 -.792E-03 0.159E-02
   -.103E+02 -.132E+03 -.111E+03   0.588E+01 0.139E+03 0.114E+03   0.438E+01 -.658E+01 -.308E+01   0.427E-03 -.124E-03 -.379E-03
   -.413E+02 0.537E+02 0.443E+02   0.502E+02 -.469E+02 -.358E+02   -.890E+01 -.676E+01 -.853E+01   0.532E-03 -.430E-03 -.673E-03
   -.203E+02 0.992E+02 -.102E+03   0.237E+02 -.102E+03 0.103E+03   -.332E+01 0.303E+01 -.857E+00   0.978E-03 -.188E-03 0.343E-03
   0.132E+01 -.126E+03 0.123E+03   -.266E+01 0.134E+03 -.130E+03   0.139E+01 -.709E+01 0.636E+01   -.431E-03 -.218E-02 0.304E-02
   0.140E+03 -.814E+02 -.131E+02   -.145E+03 0.814E+02 0.165E+02   0.539E+01 0.670E-02 -.342E+01   -.717E-04 0.176E-02 -.187E-02
   -.111E+03 0.990E+02 0.201E+02   0.115E+03 -.101E+03 -.240E+02   -.439E+01 0.157E+01 0.385E+01   0.439E-03 0.483E-03 -.645E-03
   -.124E+03 -.117E+03 0.164E+02   0.129E+03 0.121E+03 -.198E+02   -.470E+01 -.444E+01 0.344E+01   0.213E-03 -.399E-03 0.121E-02
   0.140E+03 0.941E+02 -.311E+02   -.146E+03 -.945E+02 0.346E+02   0.614E+01 0.452E+00 -.348E+01   -.464E-03 -.388E-03 0.141E-02
   -.131E+03 0.983E+02 0.442E+01   0.136E+03 -.101E+03 -.291E+01   -.527E+01 0.277E+01 -.154E+01   -.546E-03 0.429E-03 0.213E-02
   0.119E+03 -.739E+02 0.126E+02   -.124E+03 0.730E+02 -.157E+02   0.456E+01 0.847E+00 0.310E+01   -.344E-03 -.116E-03 0.657E-03
   0.111E+03 0.907E+02 0.230E+02   -.116E+03 -.915E+02 -.262E+02   0.468E+01 0.736E+00 0.320E+01   0.254E-04 0.208E-03 -.686E-03
   -.125E+03 -.113E+03 -.330E+02   0.130E+03 0.116E+03 0.364E+02   -.446E+01 -.374E+01 -.339E+01   0.566E-03 -.160E-03 -.224E-02
   -.484E+02 0.337E+02 -.788E+02   0.423E+02 -.403E+02 0.728E+02   0.612E+01 0.652E+01 0.598E+01   0.249E-03 0.174E-02 -.157E-03
   0.108E+03 -.274E+02 0.142E+03   -.109E+03 0.304E+02 -.150E+03   0.177E+01 -.301E+01 0.806E+01   -.166E-03 0.611E-03 -.464E-04
   -.104E+03 -.150E+02 0.128E+03   0.104E+03 0.186E+02 -.133E+03   -.476E-01 -.352E+01 0.489E+01   0.101E-03 -.189E-03 -.124E-03
   0.746E+02 -.791E+01 -.142E+03   -.758E+02 0.519E+01 0.149E+03   0.121E+01 0.271E+01 -.738E+01   0.105E-02 -.368E-03 -.173E-02
   0.865E+02 -.421E+01 0.128E+03   -.873E+02 0.245E+01 -.134E+03   0.868E+00 0.175E+01 0.607E+01   0.446E-03 -.567E-03 0.826E-03
   -.855E+02 -.335E+01 -.110E+03   0.857E+02 0.542E+01 0.114E+03   -.230E+00 -.207E+01 -.447E+01   0.728E-03 -.117E-03 0.935E-03
   0.694E+02 -.118E+02 -.108E+03   -.706E+02 0.148E+02 0.112E+03   0.118E+01 -.300E+01 -.388E+01   -.139E-02 -.112E-02 0.532E-03
   -.113E+03 0.314E+02 0.104E+03   0.115E+03 -.352E+02 -.109E+03   -.155E+01 0.366E+01 0.462E+01   -.293E-02 0.307E-03 0.211E-03
   0.360E+02 0.284E+02 -.371E+02   -.288E+02 -.353E+02 0.282E+02   -.714E+01 0.691E+01 0.885E+01   -.244E-03 0.780E-03 0.867E-03
   -.128E+03 0.206E+02 0.732E+02   0.134E+03 -.205E+02 -.738E+02   -.532E+01 -.134E+00 0.564E+00   -.587E-03 0.801E-03 -.456E-03
   -.109E+03 0.195E+02 -.953E+02   0.113E+03 -.193E+02 0.964E+02   -.407E+01 -.187E+00 -.112E+01   0.876E-03 0.218E-05 -.134E-02
   0.144E+03 0.274E+02 0.117E+03   -.150E+03 -.318E+02 -.120E+03   0.580E+01 0.440E+01 0.300E+01   0.131E-03 0.521E-03 -.375E-03
   -.135E+03 0.172E+02 0.118E+03   0.140E+03 -.212E+02 -.122E+03   -.430E+01 0.399E+01 0.404E+01   0.125E-04 -.710E-03 0.391E-03
   0.579E+02 -.436E+02 -.658E+02   -.505E+02 0.502E+02 0.602E+02   -.742E+01 -.660E+01 0.551E+01   0.113E-02 0.481E-03 0.258E-04
   0.137E+03 -.254E+02 0.917E+02   -.144E+03 0.297E+02 -.926E+02   0.686E+01 -.436E+01 0.891E+00   -.353E-03 -.103E-02 0.187E-03
   -.105E+03 0.169E+02 -.104E+03   0.110E+03 -.192E+02 0.105E+03   -.452E+01 0.236E+01 -.851E+00   -.365E-03 -.620E-03 -.116E-02
   -.967E+02 0.122E+03 0.225E+02   0.988E+02 -.125E+03 -.265E+02   -.205E+01 0.368E+01 0.403E+01   0.618E-03 0.305E-03 0.559E-03
   0.710E+02 -.523E+02 -.363E+02   -.655E+02 0.441E+02 0.429E+02   -.537E+01 0.817E+01 -.670E+01   -.935E-03 0.166E-03 -.105E-03
   -.116E+03 -.170E+03 -.215E+02   0.123E+03 0.180E+03 0.257E+02   -.689E+01 -.102E+02 -.433E+01   -.342E-02 -.238E-02 0.405E-02
   0.122E+03 0.130E+03 0.195E+02   -.124E+03 -.134E+03 -.223E+02   0.199E+01 0.442E+01 0.279E+01   -.472E-03 -.828E-03 -.681E-03
[...]
   -.210E+00 0.394E+00 -.338E+01   -.196E+00 -.650E-01 0.328E+01   0.400E+00 -.326E+00 0.127E+00   0.519E-04 0.124E-03 0.128E-03
   0.126E+01 -.832E+00 0.759E+00   -.118E+01 0.977E+00 -.625E+00   -.117E+00 -.733E-01 -.112E+00   0.183E-04 0.374E-04 -.167E-04
   0.245E+01 -.302E+01 0.262E+01   -.237E+01 0.289E+01 -.286E+01   -.127E+00 0.312E-01 0.252E+00   0.529E-04 0.798E-04 0.108E-03
   0.396E+00 0.219E+00 -.142E+01   -.274E+00 -.694E+00 0.124E+01   -.113E+00 0.462E+00 0.175E+00   0.342E-04 0.119E-03 0.209E-04
   -.398E+00 -.165E+01 -.925E+01   -.410E+00 0.142E+01 0.839E+01   0.872E+00 -.501E-01 0.115E+01   -.768E-04 0.197E-03 -.850E-04
   -.594E+00 -.901E+00 0.171E+00   0.940E+00 0.185E+00 -.645E+00   -.327E+00 0.746E+00 0.447E+00   -.647E-04 -.870E-04 0.137E-03
   0.352E+01 0.664E+00 -.178E+01   -.330E+01 -.440E+00 0.206E+01   -.300E+00 -.209E+00 -.256E+00   -.894E-04 -.617E-04 -.124E-03
   0.163E+01 -.106E+01 0.105E+01   -.153E+01 0.146E+01 -.119E+01   -.974E-01 -.370E+00 0.149E+00   -.109E-03 -.101E-03 -.876E-04
   -.142E+01 -.200E+00 0.191E+00   0.179E+01 0.416E+00 -.443E+00   -.487E+00 -.259E-01 0.213E+00   0.472E-04 0.118E-04 0.117E-03
   -.286E+01 0.220E+01 -.237E+01   0.304E+01 -.260E+01 0.246E+01   -.278E+00 0.429E+00 -.157E-01   -.828E-05 -.391E-04 -.317E-03
   0.396E+01 -.178E+01 -.188E+01   -.389E+01 0.134E+01 0.189E+01   -.657E-01 0.432E+00 0.112E+00   -.108E-04 -.487E-04 0.435E-03
   -.209E+01 -.448E+01 0.109E+01   0.270E+01 0.453E+01 -.134E+01   -.609E+00 0.201E-02 0.251E+00   0.367E-04 0.189E-03 0.473E-03
   -.130E+02 -.188E+02 0.923E+00   0.123E+02 0.173E+02 -.204E+00   0.665E+00 0.152E+01 -.645E+00   -.739E-04 0.800E-03 0.479E-03
   0.566E+01 0.409E+01 -.106E+02   -.531E+01 -.429E+01 0.101E+02   -.282E+00 0.118E+00 0.482E+00   0.536E-03 0.351E-03 0.275E-03
   0.166E+01 -.382E+01 -.914E+01   -.432E-12 0.894E-12 -.256E-12   -.163E+01 0.382E+01 0.913E+01   -.165E-01 -.237E-01 0.214E-01

 POSITION                                       TOTAL-FORCE (eV/Angst)
      1.42419      2.52050      3.52583         0.020087     -0.001920      0.007337
     11.69209     10.46563      9.25134         0.003339      0.000845     -0.001524
      5.17485     10.45235     10.29117         0.012593     -0.022885     -0.047658
      7.83999      2.65677      2.87622         0.013212     -0.001671     -0.018579
     11.74302      9.05726      2.85364        -0.002370     -0.013136      0.025048
      1.35924      3.94006     10.17967         0.002677      0.054740     -0.009412
      7.78128      4.07171      9.37837         0.039610      0.006988     -0.020957
      5.24759      9.11770      3.79068        -0.017306      0.004051     -0.002383
      3.63226      1.29470      2.37151         0.053887     -0.031442      0.001410
      9.39660     11.69708     10.50640         0.064443     -0.015194      0.056786
     10.21616      5.26003     10.51141         0.013502     -0.000986     -0.011627
      2.69884      7.75492      2.58719        -0.012365      0.012749      0.021719
      2.78529     11.64831      8.98419        -0.010604      0.019732      0.017222
     10.06030      1.29428      3.98341        -0.023559      0.027889      0.020669
      9.29920      7.72048      3.88952         0.063629      0.040757      0.069079
      3.67859      5.12659      8.89846         0.011780      0.018810     -0.043262
      2.62688      3.65759      1.20771         0.021827     -0.012215     -0.021816
     10.36905      9.22582     11.70528         0.006154     -0.015497      0.003351
     10.45706     10.11549      5.22319        -0.020602      0.017845      0.008972
      2.52095      2.80665      7.76171         0.007250     -0.000253     -0.024113
      9.03766      2.85026     11.66896         0.044451      0.019073      0.003017
      3.97631     10.08681      1.28629         0.005642     -0.019167     -0.011879
      4.09016      9.39589      7.79471        -0.021706      0.009292     -0.021848
      9.16341      3.78783      5.13877         0.006825      0.130140     -0.032152
     12.37662      4.53678     12.58532        -0.004263     -0.017016      0.026417
      0.71197      8.47859      0.33780         0.032537     -0.004814      0.015639
      6.99858      8.55958      5.88275         0.037166     -0.029313     -0.024481
      5.82985      4.55687      6.89524         0.019322      0.006681     -0.043443
      5.73769      1.95957      0.26961         0.006856      0.015393     -0.010634
      7.15975     10.97493     12.41942        -0.009503      0.028651     -0.031890
      0.50285     10.96947      6.92389        -0.001157      0.015744     -0.018753
     12.12880      1.97414      6.18996         0.048632      0.026011     -0.086455
     11.15654      6.93120      0.81168        -0.008904     -0.029785     -0.012085
      2.00322      6.07194     12.26892        -0.002735     -0.003065     -0.020322
      1.91556      0.37720      5.88054         0.008104     -0.023753     -0.042068
     10.92732     12.49507      7.02068         0.007016      0.029208     -0.013145
      8.34468      6.32315      7.20942         0.015701     -0.006107     -0.029251
      4.40627      6.90435      5.86154         0.014894     -0.003636     -0.068507
      4.52237     12.59421     12.24301        -0.001425      0.010905     -0.036053
      8.44507      0.31697      0.57988        -0.003893     -0.005419      0.034230
      0.61364      5.91944      1.99888         0.030346     -0.050703     -0.026786
     12.53796      7.07700     11.00504         0.013817      0.016911      0.011318
      6.97298      0.61587     10.93084         0.017064      0.028333     -0.013941
      6.06195     12.23067      1.85862        -0.021583     -0.012409     -0.010159
     12.54131     12.20448      4.49388        -0.008935     -0.003443     -0.032583
      0.42911      0.59132      8.43641        -0.010819     -0.003334     -0.047829
      5.97060      7.22128      8.46777         0.027149      0.019574     -0.035388
      6.83324      5.91407      4.52226         0.064786     -0.106870      0.006229
      7.63619      9.13890     10.31196         0.039921      0.023585     -0.007633
      5.25113      4.09333      2.70439         0.022472      0.000743     -0.017828
     11.75709      4.06837      3.62878        -0.010735     -0.026647      0.004587
      1.31133      9.05179      9.41512        -0.007631     -0.005694      0.003957
      5.26556      2.61442      9.34662         0.011977      0.023761     -0.019499
      7.72367     10.34161      3.65936         0.015510      0.030384     -0.035729
      1.29528     10.40840      2.78426         0.016518      0.000318      0.005315
     11.75450      2.64052     10.09337         0.038575      0.035146      0.038833
     10.01152      7.79739      9.22373         0.008446     -0.002806     -0.028066
      2.77436      5.23595      3.84125         0.047260      0.036533     -0.040907
      3.55684     11.73647      3.85227         0.099514      0.053543     -0.147216
      9.45816      1.37122      9.07185         0.013517     -0.002423      0.030582
[...]
      9.89730      8.05496      0.22535        -0.020634     -0.010699      0.059812
      9.28705     11.37020      6.66205        -0.006089      0.003042      0.025632
      1.65134     -0.01767      9.78602        -0.032194      0.071468      0.021980
     11.28768      6.48248      9.27846        -0.051115     -0.095199      0.008490
      0.09586      9.25405      8.08297         0.008886     -0.012493     -0.003879
      8.70586      5.76327      4.26382         0.063880     -0.281921      0.286889
      6.77883      2.97261      8.11953         0.019372      0.029647     -0.027364
      9.86570      1.61923      0.26711        -0.083748      0.014772      0.027418
     11.36535      0.27423      3.12057        -0.001426      0.031320      0.007077
      7.98164      0.37998      9.08192        -0.121424      0.189511     -0.039423
      6.61253      2.91524      1.55144        -0.106024      0.025884      0.074095
      9.51353      4.91834      6.66031         0.002487     -0.014402      0.122579
      6.38958      9.82701     11.36195         0.003729      0.053632     -0.002452
      6.49068      9.91831      4.83105        -0.041767      0.000424      0.074765
      1.65665      6.48048      3.31100         0.062100     -0.078875     -0.000484
    total drift:                                0.009756     -0.020348      0.009625

  FREE ENERGIE OF THE ION-ELECTRON SYSTEM (eV)
  free  energy   TOTEN  =     -1362.77597645 eV

  energy  without entropy=    -1362.77597645  energy(sigma->0) =    -1362.77597645

 d Force = 0.1915883E+00[ 0.181E+00, 0.202E+00]  d Energy = 0.1920037E+00-0.415E-03
 d Force = 0.4152124E+01[ 0.395E+01, 0.436E+01]  d Ewald  = 0.4154975E+01-0.285E-02

 Quasi-Newton relaxation of ions (Broydens 2nd method)
  g(Force)  = 0.807E-01   g(Stress)= 0.000E+00

 retain information from N=  3 steps
 eigenvalues of (default step * inverse Hessian matrix)
  average eigenvalue of G=   4.8923
 eigenvalue spectrum of G is  6.5794  6.5794  1.5182