 vasp.5.4.4.18Apr17-6-g9f103f2a35 (build May 01 2020 14:22:42) gamma-only

 executed on             LinuxIFC date 2022.02.25  05:06:06

 INCAR:
 POTCAR:    PAW_PBE O 08Apr2002
 POTCAR:    PAW_PBE La 06Sep2000
 POTCAR:    PAW_PBE Zr_sv 04Jan2005
 POTCAR:    PAW_PBE Li 17Jan2003
 POTCAR:    PAW_PBE Al 04Jan2001
 POTCAR:    PAW_PBE O 08Apr2002
   VRHFIN =O: s2p4

   TITEL  = PAW_PBE O 08Apr2002
   POMASS =   16.000; ZVAL   =    6.000    mass and valenz
   ENMAX  =  400.000; ENMIN  =  300.000 eV

 POTCAR:    PAW_PBE La 06Sep2000
   VRHFIN =La : [core=Kr4d]

   TITEL  = PAW_PBE La 06Sep2000
   POMASS =  138.900; ZVAL   =   11.000    mass and valenz
   ENMAX  =  219.292; ENMIN  =  164.469 eV

 POTCAR:    PAW_PBE Zr_sv 04Jan2005
   VRHFIN =Zr: 4s4p5s4d

   TITEL  = PAW_PBE Zr_sv 04Jan2005
   POMASS =   91.224; ZVAL   =   12.000    mass and valenz
   ENMAX  =  229.898; ENMIN  =  172.424 eV

 POTCAR:    PAW_PBE Li 17Jan2003
   VRHFIN =Li: s1p0

   TITEL  = PAW_PBE Li 17Jan2003
   POMASS =    7.010; ZVAL   =    1.000    mass and valenz
   ENMAX  =  140.000; ENMIN  =  100.000 eV

 POTCAR:    PAW_PBE Al 04Jan2001
   VRHFIN =Al: s2p1

   TITEL  = PAW_PBE Al 04Jan2001
   POMASS =   26.981; ZVAL   =    3.000    mass and valenz
   ENMAX  =  240.300; ENMIN  =  180.225 eV

 Optimization of the real space projectors (new method)

 maximal supplied QI-value         = 24.76
 optimisation between [QCUT,QGAM] = [ 11.39, 22.77] = [ 36.31,145.25] Ry
 Optimized for a Real-space Cutoff    1.10 Angstroem

   l    n(q)    QCUT    max X(q) W(low)/X(q) W(high)/X(q)  e(spline)
   0      7    11.387    20.381    0.22E-03    0.48E-03    0.18E-06
   0      7    11.387    15.268    0.22E-03    0.52E-03    0.19E-06
   1      7    11.387     5.964    0.22E-03    0.73E-03    0.24E-06
   1      7    11.387     5.382    0.19E-03    0.60E-03    0.21E-06
 Optimization of the real space projectors (new method)

[...]

   l    n(q)    QCUT    max X(q) W(low)/X(q) W(high)/X(q)  e(spline)
   0      8    11.365    33.825    0.48E-04    0.18E-03    0.59E-07
   0      8    11.365     8.944    0.37E-04    0.13E-03    0.44E-07
   1      8    11.365     4.214    0.24E-03    0.13E-03    0.38E-07
 Optimization of the real space projectors (new method)

 maximal supplied QI-value         = 19.84
 optimisation between [QCUT,QGAM] = [ 11.31, 22.82] = [ 35.82,145.81] Ry
 Optimized for a Real-space Cutoff    1.16 Angstroem

   l    n(q)    QCUT    max X(q) W(low)/X(q) W(high)/X(q)  e(spline)
   0      8    11.310   176.870    0.22E-03    0.22E-03    0.34E-07
   0      8    11.310   105.762    0.21E-03    0.22E-03    0.33E-07
   1      7    11.310    55.370    0.19E-03    0.26E-03    0.72E-07
   1      7    11.310    20.208    0.18E-03    0.24E-03    0.66E-07
  PAW_PBE O 08Apr2002                   :
  PAW_PBE La 06Sep2000                  :
  PAW_PBE Zr_sv 04Jan2005               :
  PAW_PBE Li 17Jan2003                  :
  PAW_PBE Al 04Jan2001                  :

 POSCAR: LLZO_Ia3d_Al00_partial_99
  positions in direct lattice
  velocities in cartesian coordinates
 exchange correlation table for  LEXCH =        8
   RHO(1)=    0.500       N(1)  =     2000
   RHO(2)=  100.500       N(2)  =     4000

 ion  position               nearest neighbor table
   1  0.100  0.196  0.282- 145 1.87 174 1.91 128 2.11 168 2.25 113 2.51  97 2.59
   2  0.900  0.804  0.718- 181 1.91 127 2.11 152 2.12 141 2.14 114 2.51  98 2.59 155 2.61
   3  0.400  0.804  0.782- 179 1.91 126 2.11 166 2.25 119 2.51  99 2.59
   4  0.600  0.196  0.218- 165 1.87 187 1.91 125 2.11 151 2.12 138 2.25 120 2.51 100 2.59
   5  0.900  0.696  0.218- 190 1.91 130 2.11 154 2.12 158 2.14 164 2.25 115 2.51 101 2.59
   6  0.100  0.304  0.782- 182 1.91 129 2.11 156 2.25 116 2.51 102 2.59
   7  0.600  0.304  0.718- 173 1.91 132 2.11 153 2.25 117 2.51 103 2.59
   8  0.400  0.696  0.282- 169 1.91 131 2.11 163 2.12 143 2.14 118 2.51 104 2.59
   9  0.282  0.100  0.196- 188 1.91 128 2.11 138 2.14  97 2.51 105 2.59 148 2.61
  10  0.718  0.900  0.804- 177 1.91 127 2.11 150 2.12 166 2.14  98 2.51 106 2.59
  11  0.782  0.400  0.804- 184 1.91 132 2.11 161 2.12 156 2.14 103 2.51 107 2.59 167 2.61
  12  0.218  0.600  0.196- 176 1.91 131 2.11 142 2.12 164 2.14 104 2.51 108 2.59
  13  0.218  0.900  0.696- 155 1.88 186 1.91 126 2.11 149 2.25  99 2.51 109 2.59
  14  0.782  0.100  0.304- 170 1.91 125 2.11 168 2.14 100 2.51 110 2.59
  15  0.718  0.600  0.304- 171 1.91 130 2.11 159 2.12 101 2.51 111 2.59
  16  0.282  0.400  0.696- 192 1.91 129 2.11 153 2.14 102 2.51 112 2.59
  17  0.196  0.282  0.100- 189 1.91 128 2.11 105 2.51 113 2.59
  18  0.804  0.718  0.900- 167 1.87 180 1.91 127 2.11 158 2.25 106 2.51 114 2.59
  19  0.804  0.782  0.400- 178 1.91 130 2.11 141 2.25 111 2.51 115 2.59
  20  0.196  0.218  0.600- 172 1.91 129 2.11 149 2.14 112 2.51 116 2.59 145 2.61
  21  0.696  0.218  0.900- 185 1.91 132 2.11 157 2.12 107 2.51 117 2.59 165 2.61
  22  0.304  0.782  0.100- 148 1.87 175 1.91 131 2.11 108 2.51 118 2.59
  23  0.304  0.718  0.600- 183 1.91 126 2.11 139 2.12 143 2.25 109 2.51 119 2.59
  24  0.696  0.282  0.400- 191 1.91 125 2.11 162 2.12 110 2.51 120 2.59
  25  0.946  0.350  0.968- 156 1.87 182 1.91 134 2.11 113 2.51 107 2.59 157 2.61
  26  0.054  0.650  0.032- 164 1.87 190 1.91 134 2.11 114 2.51 108 2.59
  27  0.554  0.650  0.468- 169 1.91 133 2.11 160 2.25 119 2.51 111 2.59
  28  0.446  0.350  0.532- 153 1.87 173 1.91 133 2.11 120 2.51 112 2.59
  29  0.446  0.150  0.032- 138 1.87 187 1.91 135 2.11 165 2.12 117 2.51 105 2.59
  30  0.554  0.850  0.968- 166 1.87 179 1.91 135 2.11 147 2.25 118 2.51 106 2.59
  31  0.054  0.850  0.532- 181 1.91 136 2.11 155 2.14 115 2.51 109 2.59 139 2.61
  32  0.946  0.150  0.468- 168 1.87 174 1.91 136 2.11 145 2.12 116 2.51 110 2.59 162 2.61
  33  0.850  0.532  0.054- 158 1.87 180 1.91 134 2.11 167 2.12 107 2.51 101 2.59 159 2.61
  34  0.150  0.468  0.946- 189 1.91 134 2.11 108 2.51 102 2.59
  35  0.150  0.032  0.446- 172 1.91 136 2.11 145 2.14 140 2.25 109 2.51  97 2.59
  36  0.850  0.968  0.554- 141 1.87 178 1.91 136 2.11 110 2.51  98 2.59 150 2.61
  37  0.650  0.468  0.554- 191 1.91 133 2.11 111 2.51 103 2.59 161 2.61
  38  0.350  0.532  0.446- 143 1.87 183 1.91 133 2.11 112 2.51 104 2.59 142 2.61
  39  0.350  0.968  0.946- 175 1.91 135 2.11 148 2.12 137 2.25 105 2.51  99 2.59
  40  0.650  0.032  0.054- 185 1.91 135 2.11 165 2.14 106 2.51 100 2.59
  41  0.032  0.446  0.150- 176 1.91 134 2.11 146 2.25 101 2.51 113 2.59
  42  0.968  0.554  0.850- 184 1.91 134 2.11 167 2.14 102 2.51 114 2.59 152 2.61
  43  0.532  0.054  0.850- 177 1.91 135 2.11 144 2.25  99 2.51 117 2.59
  44  0.468  0.946  0.150- 188 1.91 135 2.11 148 2.14 100 2.51 118 2.59 163 2.61
  45  0.968  0.946  0.350- 170 1.91 136 2.11  97 2.51 115 2.59 154 2.61
  46  0.032  0.054  0.650- 149 1.88 186 1.91 136 2.11 155 2.12  98 2.51 116 2.59
  47  0.468  0.554  0.650- 192 1.91 133 2.11 103 2.51 119 2.59
  48  0.532  0.446  0.350- 171 1.91 133 2.11 104 2.51 120 2.59 151 2.61
  49  0.600  0.696  0.782- 147 1.87 179 1.91 127 2.11 166 2.12 119 2.51 103 2.59
  50  0.400  0.304  0.218- 187 1.91 128 2.11 138 2.12 151 2.25 120 2.51 104 2.59
  51  0.900  0.304  0.282- 174 1.91 125 2.11 168 2.12 162 2.14 113 2.51 101 2.59 146 2.61
  52  0.100  0.696  0.718- 181 1.91 126 2.11 139 2.14 152 2.25 114 2.51 102 2.59
  53  0.400  0.196  0.718- 173 1.91 129 2.11 153 2.12 117 2.51  99 2.59 144 2.61
  54  0.600  0.804  0.282- 160 1.87 169 1.91 130 2.11 163 2.25 118 2.51 100 2.59
  55  0.100  0.804  0.218- 190 1.91 131 2.11 164 2.12 154 2.25 115 2.51  97 2.59
  56  0.900  0.196  0.782- 182 1.91 132 2.11 156 2.12 157 2.14 116 2.51  98 2.59
  57  0.782  0.600  0.696- 184 1.91 127 2.11 152 2.14 161 2.25 103 2.51 111 2.59
  58  0.218  0.400  0.304- 146 1.88 176 1.91 128 2.11 142 2.25 104 2.51 112 2.59
  59  0.282  0.900  0.304- 188 1.91 131 2.11 163 2.14  97 2.51 109 2.59 140 2.61
  60  0.718  0.100  0.696- 144 1.88 177 1.91 132 2.11 150 2.25  98 2.51 110 2.59
[...]
  83  0.650  0.532  0.946- 180 1.91 124 2.11 147 2.14 167 2.25 107 2.51 103 2.59
  84  0.350  0.468  0.054- 189 1.91 124 2.11 108 2.51 104 2.59
  85  0.150  0.968  0.054- 175 1.91 121 2.11 137 2.12 148 2.25 105 2.51  97 2.59
  86  0.850  0.032  0.946- 157 1.87 185 1.91 121 2.11 106 2.51  98 2.59
  87  0.850  0.468  0.446- 162 1.87 191 1.91 123 2.11 111 2.51 101 2.59
  88  0.150  0.532  0.554- 139 1.87 183 1.91 123 2.11 112 2.51 102 2.59
  89  0.532  0.946  0.650- 150 1.88 177 1.91 122 2.11 144 2.12  99 2.51 119 2.59 166 2.61
  90  0.468  0.054  0.350- 188 1.91 122 2.11 140 2.14 100 2.51 120 2.59 138 2.61
  91  0.032  0.554  0.350- 142 1.88 176 1.91 123 2.11 146 2.12 101 2.51 115 2.59 164 2.61
  92  0.968  0.446  0.650- 161 1.88 184 1.91 123 2.11 102 2.51 116 2.59 156 2.61
  93  0.468  0.446  0.850- 192 1.91 124 2.11 103 2.51 117 2.59 153 2.61
  94  0.532  0.554  0.150- 159 1.88 171 1.91 124 2.11 104 2.51 118 2.59
  95  0.968  0.054  0.150- 170 1.91 121 2.11  97 2.51 113 2.59 168 2.61
  96  0.032  0.946  0.850- 186 1.91 121 2.11 137 2.14 155 2.25  98 2.51 114 2.59
  97  0.125  0.000  0.250-  45 2.51  95 2.51   9 2.51  59 2.51   1 2.59  85 2.59  35 2.59  55 2.59
                           170 3.24 188 3.24 154 3.26 168 3.26 148 3.26 140 3.26 145 3.35 136 3.62
  98  0.875  0.000  0.750-  60 2.51  10 2.51  96 2.51  46 2.51  56 2.59   2 2.59  86 2.59  36 2.59
                           150 2.99 155 2.99 177 3.24 186 3.24 141 3.35 157 3.35 132 3.62 136 3.62
  99  0.375  0.000  0.750-  63 2.51  13 2.51  89 2.51  43 2.51  53 2.59   3 2.59  81 2.59  39 2.59
                           144 2.99 149 2.99 177 3.24 186 3.24 166 3.26 137 3.26 129 3.62 135 3.62
 100  0.625  0.000  0.250-  44 2.51  90 2.51  14 2.51  64 2.51  40 2.59  82 2.59   4 2.59  54 2.59
                           170 3.24 188 3.24 138 3.26 163 3.26 165 3.35 160 3.35 130 3.62 135 3.62
 101  0.875  0.500  0.250-  91 2.51  61 2.51  41 2.51  15 2.51  33 2.59  87 2.59  51 2.59   5 2.59
                           159 2.99 146 2.99 171 3.24 176 3.24 164 3.26 162 3.35 158 3.35 134 3.62
 102  0.125  0.500  0.750-  16 2.51  42 2.51  62 2.51  92 2.51   6 2.59  52 2.59  88 2.59  34 2.59
                           184 3.24 192 3.24 152 3.26 156 3.26 139 3.35 126 3.62 129 3.62 134 3.62
 103  0.625  0.500  0.750-  11 2.51  47 2.51  57 2.51  93 2.51   7 2.59  37 2.59  83 2.59  49 2.59
                           161 2.99 184 3.24 192 3.24 167 3.26 153 3.26 147 3.35 132 3.62 133 3.62
 104  0.375  0.500  0.250-  94 2.51  58 2.51  48 2.51  12 2.51  38 2.59  84 2.59  50 2.59   8 2.59
                           142 2.99 171 3.24 176 3.24 151 3.26 143 3.35 128 3.62 131 3.62 133 3.62
 105  0.250  0.125  0.000-  17 2.51  67 2.51  39 2.51  85 2.51   9 2.59  63 2.59  75 2.59  29 2.59
                           137 2.99 148 2.99 175 3.24 189 3.24 138 3.35 129 3.62 128 3.62 135 3.62
 106  0.750  0.875  0.000-  68 2.51  18 2.51  86 2.51  40 2.51  64 2.59  10 2.59  76 2.59  30 2.59
                           158 2.99 180 3.24 185 3.24 147 3.26 154 3.35 166 3.35 127 3.62 130 3.62
 107  0.750  0.375  0.000-  71 2.51  21 2.51  83 2.51  33 2.51  61 2.59  11 2.59  79 2.59  25 2.59
[...]
   -.106E+03 -.177E+02 0.832E+02   0.111E+03 0.204E+02 -.833E+02   -.433E+01 -.268E+01 0.152E-01   0.202E-03 -.252E-04 0.505E-04
   -.120E+03 0.119E+01 -.116E+03   0.124E+03 0.150E+01 0.117E+03   -.435E+01 -.271E+01 -.148E+01   0.103E-03 -.915E-04 0.199E-03
   0.120E+03 0.529E+01 0.967E+02   -.126E+03 -.661E+01 -.972E+02   0.620E+01 0.136E+01 0.517E+00   0.806E-04 0.304E-03 0.582E-04
   -.116E+03 0.246E+02 0.102E+03   0.122E+03 -.276E+02 -.103E+03   -.578E+01 0.295E+01 0.106E+01   -.367E-04 0.252E-03 0.127E-03
   0.114E+03 0.123E+01 -.110E+03   -.118E+03 0.163E+01 0.112E+03   0.421E+01 -.290E+01 -.140E+01   0.221E-03 0.191E-03 0.147E-03
   0.117E+03 -.103E+02 0.101E+03   -.123E+03 0.135E+02 -.105E+03   0.531E+01 -.312E+01 0.400E+01   -.285E-03 -.298E-03 0.148E-05
   -.118E+03 0.211E+02 -.793E+02   0.121E+03 -.238E+02 0.796E+02   -.383E+01 0.256E+01 -.370E+00   0.114E-03 0.128E-03 -.171E-03
   -.871E+02 0.112E+03 0.233E+02   0.882E+02 -.116E+03 -.260E+02   -.107E+01 0.437E+01 0.260E+01   0.110E-03 0.929E-04 -.247E-03
   0.953E+02 -.122E+03 -.185E+02   -.964E+02 0.126E+03 0.201E+02   0.111E+01 -.455E+01 -.167E+01   -.197E-03 0.256E-03 -.373E-04
   -.850E+02 -.115E+03 -.154E+02   0.844E+02 0.120E+03 0.178E+02   0.656E+00 -.462E+01 -.240E+01   -.127E-03 -.270E-03 -.282E-03
   0.858E+02 0.131E+03 0.246E+02   -.869E+02 -.136E+03 -.267E+02   0.120E+01 0.583E+01 0.206E+01   0.464E-04 -.206E-03 -.269E-03
   0.940E+02 -.121E+03 0.146E+01   -.946E+02 0.126E+03 -.358E+01   0.662E+00 -.549E+01 0.209E+01   0.121E-03 0.729E-04 0.129E-03
   -.922E+02 0.126E+03 0.265E+01   0.924E+02 -.131E+03 -.121E+00   -.238E+00 0.525E+01 -.254E+01   -.190E-03 0.250E-03 -.218E-04
   0.102E+03 0.131E+03 -.116E+02   -.104E+03 -.135E+03 0.153E+02   0.215E+01 0.396E+01 -.368E+01   0.865E-04 -.282E-04 -.149E-04
   -.956E+02 -.117E+03 -.667E+01   0.967E+02 0.123E+03 0.520E+01   -.106E+01 -.578E+01 0.147E+01   0.322E-03 0.146E-03 0.847E-04
   0.115E+02 -.104E+03 0.143E+03   -.138E+02 0.107E+03 -.150E+03   0.226E+01 -.321E+01 0.717E+01   0.136E-04 0.266E-03 -.476E-03
   -.645E+01 0.820E+02 -.124E+03   0.889E+01 -.812E+02 0.129E+03   -.245E+01 -.779E+00 -.472E+01   -.545E-04 0.644E-04 -.212E-03
   -.360E+01 -.956E+02 -.115E+03   0.569E+01 0.966E+02 0.120E+03   -.216E+01 -.982E+00 -.523E+01   0.511E-04 0.104E-03 -.105E-03
   0.276E+01 0.921E+02 0.991E+02   -.494E+01 -.926E+02 -.103E+03   0.220E+01 0.514E+00 0.379E+01   0.211E-03 0.107E-03 0.158E-03
   0.182E+02 0.108E+03 -.134E+03   -.213E+02 -.112E+03 0.140E+03   0.301E+01 0.342E+01 -.596E+01   -.199E-03 0.281E-04 -.153E-03
   -.785E+01 -.755E+02 0.133E+03   0.105E+02 0.751E+02 -.139E+03   -.274E+01 0.341E+00 0.520E+01   0.268E-03 -.323E-04 -.267E-03
   -.161E+02 0.101E+03 0.111E+03   0.185E+02 -.102E+03 -.116E+03   -.248E+01 0.911E+00 0.527E+01   0.232E-03 -.245E-03 0.139E-03
   0.134E+02 -.117E+03 -.113E+03   -.166E+02 0.120E+03 0.116E+03   0.316E+01 -.292E+01 -.250E+01   -.192E-03 -.157E-03 -.106E-03
   -.453E+01 0.115E+03 0.828E+02   0.284E+01 -.119E+03 -.828E+02   0.172E+01 0.458E+01 -.339E-01   0.308E-03 0.737E-04 0.111E-03
   -.195E+02 -.113E+03 -.953E+02   0.228E+02 0.118E+03 0.961E+02   -.322E+01 -.423E+01 -.866E+00   0.303E-03 -.304E-03 -.125E-03
   -.319E+01 -.116E+03 0.101E+03   0.406E+01 0.122E+03 -.102E+03   -.906E+00 -.545E+01 0.819E+00   -.484E-05 -.879E-05 -.177E-04
   0.904E+00 0.124E+03 -.888E+02   -.332E+01 -.129E+03 0.891E+02   0.246E+01 0.503E+01 -.277E+00   -.151E-03 -.143E-03 0.379E-03
   0.873E+01 -.119E+03 -.889E+02   -.119E+02 0.123E+03 0.893E+02   0.312E+01 -.439E+01 -.447E+00   0.764E-04 0.140E-03 -.109E-03
   -.480E+01 0.111E+03 0.941E+02   0.712E+01 -.116E+03 -.951E+02   -.232E+01 0.443E+01 0.105E+01   -.130E-03 0.520E-04 -.117E-03
   -.755E+01 0.115E+03 -.902E+02   0.104E+02 -.120E+03 0.908E+02   -.285E+01 0.442E+01 -.570E+00   -.424E-04 0.362E-04 -.264E-04
   0.117E+02 -.124E+03 0.806E+02   -.141E+02 0.129E+03 -.803E+02   0.241E+01 -.525E+01 -.285E+00   0.790E-06 -.179E-03 0.983E-04
   0.114E+03 -.843E+02 -.248E+02   -.118E+03 0.847E+02 0.282E+02   0.413E+01 -.298E+00 -.333E+01   0.899E-04 -.325E-03 -.788E-04
   -.134E+03 0.116E+03 0.116E+01   0.140E+03 -.120E+03 -.410E+01   -.612E+01 0.426E+01 0.295E+01   0.383E-03 -.235E-03 -.453E-04
   -.117E+03 -.976E+02 0.102E+02   0.122E+03 0.985E+02 -.119E+02   -.546E+01 -.922E+00 0.166E+01   0.917E-05 0.491E-04 0.259E-03
   0.119E+03 0.847E+02 -.133E+02   -.124E+03 -.845E+02 0.169E+02   0.484E+01 -.257E+00 -.359E+01   0.910E-05 0.110E-03 0.725E-04
   -.116E+03 0.102E+03 0.196E+01   0.120E+03 -.104E+03 0.713E+00   -.417E+01 0.137E+01 -.268E+01   -.229E-03 -.219E-03 0.161E-03
   0.116E+03 -.970E+02 0.209E+02   -.122E+03 0.977E+02 -.244E+02   0.569E+01 -.701E+00 0.360E+01   -.569E-05 -.315E-05 0.808E-04
   0.118E+03 0.104E+03 0.225E+02   -.123E+03 -.107E+03 -.270E+02   0.472E+01 0.327E+01 0.452E+01   -.378E-04 -.145E-03 -.122E-03
   -.130E+03 -.980E+02 -.117E+01   0.135E+03 0.993E+02 0.330E+01   -.505E+01 -.138E+01 -.213E+01   -.435E-05 0.431E-04 -.104E-03
   -.887E+02 0.111E+02 -.112E+03   0.898E+02 -.132E+02 0.118E+03   -.104E+01 0.214E+01 -.534E+01   0.238E-03 -.338E-03 -.276E-03
   0.798E+02 -.322E+01 0.101E+03   -.785E+02 0.511E+01 -.105E+03   -.136E+01 -.189E+01 0.421E+01   0.393E-03 -.187E-03 -.330E-04
   -.984E+02 -.986E+01 0.111E+03   0.995E+02 0.119E+02 -.117E+03   -.108E+01 -.207E+01 0.558E+01   -.427E-04 0.232E-03 -.479E-04
   0.788E+02 0.215E+01 -.110E+03   -.778E+02 -.375E+01 0.115E+03   -.985E+00 0.161E+01 -.454E+01   -.184E-04 0.223E-04 -.128E-03
   0.107E+03 0.156E+02 0.131E+03   -.111E+03 -.188E+02 -.137E+03   0.366E+01 0.322E+01 0.622E+01   0.984E-04 -.658E-04 0.159E-03
   -.853E+02 -.197E+02 -.118E+03   0.855E+02 0.223E+02 0.122E+03   -.109E+00 -.258E+01 -.335E+01   -.701E-04 -.806E-04 0.187E-03
   0.102E+03 -.199E+02 -.141E+03   -.105E+03 0.227E+02 0.147E+03   0.282E+01 -.285E+01 -.589E+01   -.226E-03 -.540E-04 0.338E-03
   -.110E+03 0.994E+00 0.119E+03   0.112E+03 -.346E+01 -.123E+03   -.164E+01 0.246E+01 0.433E+01   -.375E-04 -.237E-03 -.883E-04
   0.139E+03 0.214E+02 -.988E+02   -.147E+03 -.241E+02 0.100E+03   0.750E+01 0.270E+01 -.118E+01   -.382E-03 0.236E-04 0.278E-04
   -.116E+03 -.117E+02 0.990E+02   0.122E+03 0.149E+02 -.997E+02   -.576E+01 -.324E+01 0.675E+00   0.847E-05 0.356E-03 -.217E-03
   -.115E+03 -.156E+02 -.821E+02   0.120E+03 0.178E+02 0.823E+02   -.471E+01 -.222E+01 -.215E+00   -.218E-03 0.755E-04 -.174E-03
   0.110E+03 0.189E+02 0.842E+02   -.114E+03 -.220E+02 -.851E+02   0.376E+01 0.309E+01 0.968E+00   0.221E-03 -.178E-03 0.119E-03
   -.117E+03 0.212E+02 0.101E+03   0.122E+03 -.242E+02 -.104E+03   -.497E+01 0.293E+01 0.305E+01   0.311E-03 0.215E-03 0.124E-04
   0.117E+03 -.622E+01 -.835E+02   -.122E+03 0.968E+01 0.840E+02   0.463E+01 -.351E+01 -.425E+00   0.166E-03 0.889E-04 -.352E-04
   0.118E+03 -.569E+00 0.984E+02   -.124E+03 0.231E+01 -.994E+02   0.572E+01 -.180E+01 0.972E+00   0.193E-03 0.199E-03 -.115E-03
   -.116E+03 0.165E+02 -.941E+02   0.121E+03 -.196E+02 0.945E+02   -.502E+01 0.316E+01 -.415E+00   -.482E-04 -.107E-03 0.771E-05
   -.782E+02 0.120E+03 0.957E+01   0.776E+02 -.125E+03 -.124E+02   0.604E+00 0.508E+01 0.288E+01   -.747E-04 -.331E-04 -.104E-03
   0.905E+02 -.121E+03 0.262E+01   -.905E+02 0.127E+03 0.220E+00   0.219E-01 -.545E+01 -.284E+01   0.310E-04 0.183E-03 -.148E-03
   -.928E+02 -.115E+03 0.592E+00   0.936E+02 0.119E+03 0.160E+01   -.809E+00 -.452E+01 -.221E+01   -.160E-04 0.137E-03 -.673E-04
   0.863E+02 0.115E+03 0.244E+01   -.865E+02 -.120E+03 -.557E+01   0.189E+00 0.543E+01 0.314E+01   -.206E-03 0.106E-03 0.395E-04
[...]
   0.202E+01 0.179E+01 -.128E+01   -.203E+01 -.176E+01 0.923E+00   -.138E-01 0.610E-01 0.420E+00   -.308E-04 -.704E-05 -.415E-05
   0.433E+00 0.163E+01 -.833E+00   -.495E+00 -.146E+01 0.112E+01   0.826E-01 -.176E+00 -.255E+00   -.388E-04 0.329E-05 -.483E-05
   0.192E+01 -.126E+01 -.119E+01   -.158E+01 0.128E+01 0.101E+01   -.309E+00 -.181E-01 0.156E+00   0.175E-04 -.949E-05 0.218E-04
   -.861E+00 -.185E+00 -.584E+00   0.123E+01 0.429E-01 0.726E+00   -.307E+00 0.330E+00 0.218E-01   0.574E-04 0.133E-04 0.188E-04
   0.201E+01 0.212E+01 -.838E+01   -.199E+01 -.107E+01 0.747E+01   0.161E+00 -.111E+01 0.114E+01   0.277E-04 -.402E-04 0.508E-04
   -.330E+00 0.884E+00 -.163E+01   0.211E+00 -.104E+01 0.151E+01   0.996E-01 0.161E+00 0.114E+00   0.236E-04 -.138E-04 0.348E-05
   -.273E+00 -.115E+01 -.124E+01   0.855E-01 0.854E+00 0.130E+01   0.184E+00 0.302E+00 -.175E-01   -.257E-04 0.908E-05 -.326E-04
   0.301E+01 -.847E+01 -.212E+01   -.190E+01 0.763E+01 0.186E+01   -.119E+01 0.104E+01 0.362E+00   0.227E-04 0.210E-04 0.285E-04
   0.765E+01 0.153E+01 0.389E+01   -.685E+01 -.157E+01 -.282E+01   -.933E+00 0.169E+00 -.106E+01   -.507E-04 0.479E-04 -.106E-04
   0.548E+00 -.190E+00 0.261E+01   -.429E+00 0.233E+00 -.231E+01   -.144E+00 -.211E-02 -.260E+00   0.151E-04 0.142E-04 -.172E-04
   0.159E+01 0.650E+00 0.619E+00   -.152E+01 -.551E+00 -.765E+00   -.110E+00 -.936E-01 0.550E-01   0.218E-04 0.350E-04 -.141E-05
   -.680E+01 0.264E+01 0.366E+01   0.588E+01 -.285E+01 -.264E+01   0.102E+01 0.331E+00 -.106E+01   0.729E-04 0.643E-05 -.297E-04
   0.861E+00 -.678E+00 0.201E+00   -.938E+00 0.845E+00 -.472E+00   -.301E-01 -.284E+00 0.419E+00   -.520E-04 -.309E-04 0.144E-04
   -.236E+00 0.312E-01 -.337E+01   0.123E+00 0.408E+00 0.351E+01   0.127E+00 -.459E+00 -.548E-01   -.199E-04 -.242E-04 -.859E-05
   -.183E+02 -.131E+02 -.168E+02   -.137E-12 0.466E-12 0.306E-13   0.184E+02 0.131E+02 0.169E+02   0.345E-02 0.679E-03 -.344E-03

 POSITION                                       TOTAL-FORCE (eV/Angst)
      1.26626      2.47621      3.72239         0.028551      0.013729      0.018417
     11.65998     10.40140      9.26896        -0.023256      0.009801     -0.032529
      5.12555     10.57979      9.99588        -0.021389     -0.018556     -0.001522
      7.74615      2.51096      2.84963        -0.004679      0.045131     -0.039294
     11.65723      9.04400      2.86054        -0.039297     -0.047207      0.002547
      1.27546      4.05540     10.03766        -0.020749     -0.038417      0.009348
      7.74605      3.92885      9.33473         0.033832      0.030791      0.020521
      5.19790      9.03883      3.67499        -0.044863     -0.073051      0.006110
      3.69663      1.26866      2.60613        -0.025904     -0.013139     -0.048069
      9.29088     11.69604     10.39336         0.015783      0.017296      0.018621
     10.14968      5.17060     10.41521         0.000624     -0.005066      0.054084
      2.76512      7.75891      2.59885         0.060010     -0.019187     -0.014010
      2.77759     11.73708      9.06849        -0.000048     -0.004010     -0.028645
     10.12714      1.28434      3.95592        -0.009152     -0.038242     -0.007176
      9.28064      7.76731      3.90340        -0.092030     -0.020009     -0.006733
      3.62551      5.22808      9.00559        -0.012368     -0.007208      0.004902
      2.47072      3.66988      1.36352         0.028010      0.018390      0.004126
     10.38394      9.32601     11.71794        -0.007999      0.003088      0.020818
     10.44833     10.04352      5.22806        -0.070776      0.018960      0.001821
      2.46925      2.77030      7.79980         0.019931      0.048236     -0.035664
      9.12353      2.76512     11.63370        -0.034987     -0.077376     -0.009245
      3.92501     10.09658      1.29658        -0.070888      0.022003      0.000908
      3.86711      9.33597      7.74523        -0.014204     -0.048711     -0.015197
      9.04477      3.58273      5.14408         0.017160      0.001537      0.014818
     12.24773      4.47392     12.50793         0.021090      0.026324      0.028683
      0.62243      8.41363      0.48406         0.144308     -0.002776     -0.043839
      7.23460      8.41942      6.14471        -0.029430     -0.012342     -0.010727
      5.70038      4.54233      6.93303         0.048673     -0.031712     -0.000005
      5.79979      1.94494      0.46985        -0.031888     -0.027527     -0.043779
      7.16794     10.97710     12.46810        -0.001369      0.008609      0.019609
      0.72986     11.05714      6.91478        -0.000814      0.022339     -0.018491
     12.27136      1.96366      6.03821         0.021900      0.015564     -0.002261
     10.98318      6.96678      0.59044         0.024258      0.012270      0.053710
      1.92876      6.17029     12.28200        -0.037837     -0.026946      0.007598
      1.92790      0.34801      5.77439         0.031548      0.008332     -0.023751
     10.97084     12.54946      7.20268        -0.000791      0.001490     -0.038921
      8.41231      6.17795      7.33924         0.001450      0.008701     -0.012175
      4.55022      6.92573      5.76220        -0.039877     -0.049843      0.058416
      4.42850     12.55164     12.41816         0.011392     -0.001125     -0.023986
      8.32442      0.40486      0.73762         0.002700     -0.010304     -0.003516
      0.31000      5.79274      1.99165         0.014349      0.015562      0.025029
     12.51264      7.20355     10.99408        -0.020728     -0.002615      0.024778
      6.76908      0.70306     10.98982         0.032556     -0.046507     -0.021202
      6.04103     12.16258      1.93854        -0.010022      0.010647      0.018835
     12.46836     12.28491      4.52400        -0.038513      0.009660     -0.002673
      0.39723      0.65281      8.43846         0.025717      0.058837     -0.037678
      5.95041      7.13039      8.42675        -0.074031     -0.031997     -0.019344
      6.79643      5.64150      4.61500        -0.028329      0.000712     -0.015971
      7.71774      9.14182     10.10776         0.022056     -0.050469     -0.008215
      5.18852      3.85484      2.89037         0.000803      0.024044     -0.032712
     11.63810      3.92443      3.73825         0.010627     -0.010788     -0.021889
      1.26512      9.01897      9.21699        -0.035231      0.002854      0.017386
      5.13733      2.62844      9.20850        -0.019221     -0.044276     -0.062397
      7.73736     10.43606      3.73298        -0.049037     -0.042856     -0.009002
      1.25347     10.45770      2.92456        -0.053852     -0.063951     -0.029893
     11.70587      2.62457     10.11698        -0.013146     -0.000765     -0.017424
     10.18349      7.76997      9.10621         0.003548      0.012050      0.033639
      2.83573      5.21435      3.94264         0.010621     -0.010978     -0.003139
      3.73656     11.63800      3.96897        -0.015905     -0.043608     -0.025238
      9.31108      1.27067      8.99920         0.011061      0.002104      0.014077
[...]
     10.11568     11.79933      5.65044         0.117145      0.087388     -0.195693
      5.79251      9.86546     11.50968        -0.030229      0.087826      0.062282
      9.61624      8.19257      0.09001         0.021177     -0.002178      0.030972
      0.05180      9.83697      8.06897         0.029881      0.004958     -0.025574
      0.52079      3.24617     11.47562         0.065410      0.187682      0.164273
      3.89786      7.49010      7.50241         0.181000     -0.067821      0.224286
     11.32105      6.40875      9.74563        -0.019896      0.001482     -0.007392
      9.70941      1.50596      0.16461        -0.003773      0.005444      0.036545
      1.09291      0.89482     10.24262        -0.085144      0.197329      0.097324
      5.34778      3.90942      0.99851        -0.140501      0.120886      0.006866
      4.92886     -0.05759      3.25976        -0.025517      0.040278      0.045010
      3.19612      4.85261     -0.10947        -0.036433      0.005424     -0.091433
      1.00574     10.27121      1.08351         0.097328      0.115731     -0.042016
      9.01376      4.65671      6.59923        -0.106721     -0.117111      0.147998
      4.85856      6.73872      9.99259         0.013167     -0.019975      0.085299
    total drift:                                0.022717      0.004784      0.040916

  FREE ENERGIE OF THE ION-ELECTRON SYSTEM (eV)
  free  energy   TOTEN  =     -1372.41542085 eV

  energy  without entropy=    -1372.41542085  energy(sigma->0) =    -1372.41542085

 d Force = 0.3188598E+00[ 0.291E+00, 0.347E+00]  d Energy = 0.3193984E+00-0.539E-03
 d Force = 0.1196583E+02[ 0.113E+02, 0.126E+02]  d Ewald  = 0.1197252E+02-0.669E-02

 Quasi-Newton relaxation of ions (Broydens 2nd method)
  g(Force)  = 0.760E-01   g(Stress)= 0.000E+00

 retain information from N=  1 steps
 eigenvalues of (default step * inverse Hessian matrix)
  average eigenvalue of G=   6.1084
 eigenvalue spectrum of G is  6.1084